*NODE
1,	-4.7500000000,	-0.0836225254,	-4.0000000000
2,	-4.5000000000,	-0.0403585777,	-4.0000000000
3,	-4.2500000000,	-0.0234292767,	-4.0000000000
4,	-4.0000000000,	-0.0184210526,	-4.0000000000
5,	-3.7500000000,	-0.0234292767,	-4.0000000000
6,	-3.5000000000,	-0.0403585777,	-4.0000000000
7,	-3.2500000000,	-0.0836225254,	-4.0000000000
8,	-4.7500000000,	-0.1184210526,	-4.0000000000
9,	-4.5000000000,	-0.1184210526,	-4.0000000000
10,	-4.2500000000,	-0.1184210526,	-4.0000000000
11,	-4.0000000000,	-0.1184210526,	-4.0000000000
12,	-3.7500000000,	-0.1184210526,	-4.0000000000
13,	-3.5000000000,	-0.1184210526,	-4.0000000000
14,	-3.2500000000,	-0.1184210526,	-4.0000000000
15,	-4.7500000000,	-0.1532195799,	-4.0000000000
16,	-4.5000000000,	-0.1964835276,	-4.0000000000
17,	-4.2500000000,	-0.2134128286,	-4.0000000000
18,	-4.0000000000,	-0.2184210526,	-4.0000000000
19,	-3.7500000000,	-0.2134128286,	-4.0000000000
20,	-3.5000000000,	-0.1964835276,	-4.0000000000
21,	-3.2500000000,	-0.1532195799,	-4.0000000000
22,	-4.7500000000,	-0.0751082778,	-3.7029881532
23,	-4.5000000000,	-0.0319178578,	-3.7055094214
24,	-4.2500000000,	-0.0150173284,	-3.7064960005
25,	-4.0000000000,	-0.0100176159,	-3.7067878619
26,	-3.7500000000,	-0.0150173284,	-3.7064960005
27,	-3.5000000000,	-0.0319178578,	-3.7055094214
28,	-3.2500000000,	-0.0751082778,	-3.7029881532
29,	-4.7500000000,	-0.1098476644,	-3.7009602195
30,	-4.5000000000,	-0.1098476644,	-3.7009602195
31,	-4.2500000000,	-0.1098476644,	-3.7009602195
32,	-4.0000000000,	-0.1098476644,	-3.7009602195
33,	-3.7500000000,	-0.1098476644,	-3.7009602195
34,	-3.5000000000,	-0.1098476644,	-3.7009602195
35,	-3.2500000000,	-0.1098476644,	-3.7009602195
36,	-4.7500000000,	-0.1445870511,	-3.6989322857
37,	-4.5000000000,	-0.1877774711,	-3.6964110176
38,	-4.2500000000,	-0.2046780004,	-3.6954244384
39,	-4.0000000000,	-0.2096777129,	-3.6951325771
40,	-3.7500000000,	-0.2046780004,	-3.6954244384
41,	-3.5000000000,	-0.1877774711,	-3.6964110176
42,	-3.2500000000,	-0.1445870511,	-3.6989322857
43,	-4.7500000000,	-0.0523511618,	-3.4639289888
44,	-4.5000000000,	-0.0094337196,	-3.4693936320
45,	-4.2500000000,	0.0073599928,	-3.4715319619
46,	-4.0000000000,	0.0123281054,	-3.4721645476
47,	-3.7500000000,	0.0073599928,	-3.4715319619
48,	-3.5000000000,	-0.0094337196,	-3.4693936320
49,	-3.2500000000,	-0.0523511618,	-3.4639289888
50,	-4.7500000000,	-0.0868709840,	-3.4595336077
51,	-4.5000000000,	-0.0868709840,	-3.4595336077
52,	-4.2500000000,	-0.0868709840,	-3.4595336077
53,	-4.0000000000,	-0.0868709840,	-3.4595336077
54,	-3.7500000000,	-0.0868709840,	-3.4595336077
55,	-3.5000000000,	-0.0868709840,	-3.4595336077
56,	-3.2500000000,	-0.0868709840,	-3.4595336077
57,	-4.7500000000,	-0.1213908062,	-3.4551382266
58,	-4.5000000000,	-0.1643082485,	-3.4496735833
59,	-4.2500000000,	-0.1811019609,	-3.4475352535
60,	-4.0000000000,	-0.1860700735,	-3.4469026677
61,	-3.7500000000,	-0.1811019609,	-3.4475352535
62,	-3.5000000000,	-0.1643082485,	-3.4496735833
63,	-3.2500000000,	-0.1213908062,	-3.4551382266
64,	-4.7500000000,	-0.0194409947,	-3.2658678647
65,	-4.5000000000,	0.0230356101,	-3.2740841422
66,	-4.2500000000,	0.0396568216,	-3.2772991941
67,	-4.0000000000,	0.0445739030,	-3.2782503084
68,	-3.7500000000,	0.0396568216,	-3.2772991941
69,	-3.5000000000,	0.0230356101,	-3.2740841422
70,	-3.2500000000,	-0.0194409947,	-3.2658678647
71,	-4.7500000000,	-0.0536062378,	-3.2592592593
72,	-4.5000000000,	-0.0536062378,	-3.2592592593
73,	-4.2500000000,	-0.0536062378,	-3.2592592593
74,	-4.0000000000,	-0.0536062378,	-3.2592592593
75,	-3.7500000000,	-0.0536062378,	-3.2592592593
76,	-3.5000000000,	-0.0536062378,	-3.2592592593
77,	-3.2500000000,	-0.0536062378,	-3.2592592593
78,	-4.7500000000,	-0.0877714809,	-3.2526506538
79,	-4.5000000000,	-0.1302480857,	-3.2444343763
80,	-4.2500000000,	-0.1468692972,	-3.2412193244
81,	-4.0000000000,	-0.1517863786,	-3.2402682101
82,	-3.7500000000,	-0.1468692972,	-3.2412193244
83,	-3.5000000000,	-0.1302480857,	-3.2444343763
84,	-3.2500000000,	-0.0877714809,	-3.2526506538
85,	-4.7500000000,	0.0196994941,	-3.0916691514
86,	-4.5000000000,	0.0618067275,	-3.1016064584
87,	-4.2500000000,	0.0782834030,	-3.1054949539
88,	-4.0000000000,	0.0831577260,	-3.1066452941
89,	-3.7500000000,	0.0782834030,	-3.1054949539
90,	-3.5000000000,	0.0618067275,	-3.1016064584
91,	-3.2500000000,	0.0196994941,	-3.0916691514
92,	-4.7500000000,	-0.0141686521,	-3.0836762689
93,	-4.5000000000,	-0.0141686521,	-3.0836762689
94,	-4.2500000000,	-0.0141686521,	-3.0836762689
95,	-4.0000000000,	-0.0141686521,	-3.0836762689
96,	-3.7500000000,	-0.0141686521,	-3.0836762689
97,	-3.5000000000,	-0.0141686521,	-3.0836762689
98,	-3.2500000000,	-0.0141686521,	-3.0836762689
99,	-4.7500000000,	-0.0480367983,	-3.0756833864
100,	-4.5000000000,	-0.0901440317,	-3.0657460793
101,	-4.2500000000,	-0.1066207071,	-3.0618575839
102,	-4.0000000000,	-0.1114950302,	-3.0607072436
103,	-3.7500000000,	-0.1066207071,	-3.0618575839
104,	-3.5000000000,	-0.0901440317,	-3.0657460793
105,	-3.2500000000,	-0.0480367983,	-3.0756833864
106,	-4.7500000000,	0.0611946931,	-2.9243166136
107,	-4.5000000000,	0.1033019264,	-2.9342539207
108,	-4.2500000000,	0.1197786019,	-2.9381424161
109,	-4.0000000000,	0.1246529249,	-2.9392927564
110,	-3.7500000000,	0.1197786019,	-2.9381424161
111,	-3.5000000000,	0.1033019264,	-2.9342539207
112,	-3.2500000000,	0.0611946931,	-2.9243166136
113,	-4.7500000000,	0.0273265468,	-2.9163237311
114,	-4.5000000000,	0.0273265468,	-2.9163237311
115,	-4.2500000000,	0.0273265468,	-2.9163237311
116,	-4.0000000000,	0.0273265468,	-2.9163237311
117,	-3.7500000000,	0.0273265468,	-2.9163237311
118,	-3.5000000000,	0.0273265468,	-2.9163237311
119,	-3.2500000000,	0.0273265468,	-2.9163237311
120,	-4.7500000000,	-0.0065415994,	-2.9083308486
121,	-4.5000000000,	-0.0486488328,	-2.8983935416
122,	-4.2500000000,	-0.0651255082,	-2.8945050461
123,	-4.0000000000,	-0.0699998313,	-2.8933547059
124,	-3.7500000000,	-0.0651255082,	-2.8945050461
125,	-3.5000000000,	-0.0486488328,	-2.8983935416
126,	-3.2500000000,	-0.0065415994,	-2.9083308486
127,	-4.7500000000,	0.1009293756,	-2.7473493462
128,	-4.5000000000,	0.1434059804,	-2.7555656237
129,	-4.2500000000,	0.1600271920,	-2.7587806756
130,	-4.0000000000,	0.1649442734,	-2.7597317899
131,	-3.7500000000,	0.1600271920,	-2.7587806756
132,	-3.5000000000,	0.1434059804,	-2.7555656237
133,	-3.2500000000,	0.1009293756,	-2.7473493462
134,	-4.7500000000,	0.0667641326,	-2.7407407407
135,	-4.5000000000,	0.0667641326,	-2.7407407407
136,	-4.2500000000,	0.0667641326,	-2.7407407407
137,	-4.0000000000,	0.0667641326,	-2.7407407407
138,	-3.7500000000,	0.0667641326,	-2.7407407407
139,	-3.5000000000,	0.0667641326,	-2.7407407407
140,	-3.2500000000,	0.0667641326,	-2.7407407407
141,	-4.7500000000,	0.0325988895,	-2.7341321353
142,	-4.5000000000,	-0.0098777153,	-2.7259158578
143,	-4.2500000000,	-0.0264989269,	-2.7227008059
144,	-4.0000000000,	-0.0314160083,	-2.7217496916
145,	-3.7500000000,	-0.0264989269,	-2.7227008059
146,	-3.5000000000,	-0.0098777153,	-2.7259158578
147,	-3.2500000000,	0.0325988895,	-2.7341321353
148,	-4.7500000000,	0.1345487010,	-2.5448617734
149,	-4.5000000000,	0.1774661432,	-2.5503264167
150,	-4.2500000000,	0.1942598556,	-2.5524647465
151,	-4.0000000000,	0.1992279683,	-2.5530973323
152,	-3.7500000000,	0.1942598556,	-2.5524647465
153,	-3.5000000000,	0.1774661432,	-2.5503264167
154,	-3.2500000000,	0.1345487010,	-2.5448617734
155,	-4.7500000000,	0.1000288788,	-2.5404663923
156,	-4.5000000000,	0.1000288788,	-2.5404663923
157,	-4.2500000000,	0.1000288788,	-2.5404663923
158,	-4.0000000000,	0.1000288788,	-2.5404663923
159,	-3.7500000000,	0.1000288788,	-2.5404663923
160,	-3.5000000000,	0.1000288788,	-2.5404663923
161,	-3.2500000000,	0.1000288788,	-2.5404663923
162,	-4.7500000000,	0.0655090566,	-2.5360710112
163,	-4.5000000000,	0.0225916144,	-2.5306063680
164,	-4.2500000000,	0.0057979019,	-2.5284680381
165,	-4.0000000000,	0.0008297893,	-2.5278354524
166,	-3.7500000000,	0.0057979019,	-2.5284680381
167,	-3.5000000000,	0.0225916144,	-2.5306063680
168,	-3.2500000000,	0.0655090566,	-2.5360710112
169,	-4.7500000000,	0.1577449458,	-2.3010677143
170,	-4.5000000000,	0.2009353658,	-2.3035889824
171,	-4.2500000000,	0.2178358952,	-2.3045755616
172,	-4.0000000000,	0.2228356077,	-2.3048674229
173,	-3.7500000000,	0.2178358952,	-2.3045755616
174,	-3.5000000000,	0.2009353658,	-2.3035889824
175,	-3.2500000000,	0.1577449458,	-2.3010677143
176,	-4.7500000000,	0.1230055592,	-2.2990397805
177,	-4.5000000000,	0.1230055592,	-2.2990397805
178,	-4.2500000000,	0.1230055592,	-2.2990397805
179,	-4.0000000000,	0.1230055592,	-2.2990397805
180,	-3.7500000000,	0.1230055592,	-2.2990397805
181,	-3.5000000000,	0.1230055592,	-2.2990397805
182,	-3.2500000000,	0.1230055592,	-2.2990397805
183,	-4.7500000000,	0.0882661725,	-2.2970118468
184,	-4.5000000000,	0.0450757525,	-2.2944905786
185,	-4.2500000000,	0.0281752232,	-2.2935039995
186,	-4.0000000000,	0.0231755107,	-2.2932121381
187,	-3.7500000000,	0.0281752232,	-2.2935039995
188,	-3.5000000000,	0.0450757525,	-2.2944905786
189,	-3.2500000000,	0.0882661725,	-2.2970118468
190,	-4.7500000000,	0.1663774746,	-2.0000000000
191,	-4.5000000000,	0.2096414223,	-2.0000000000
192,	-4.2500000000,	0.2265707233,	-2.0000000000
193,	-4.0000000000,	0.2315789474,	-2.0000000000
194,	-3.7500000000,	0.2265707233,	-2.0000000000
195,	-3.5000000000,	0.2096414223,	-2.0000000000
196,	-3.2500000000,	0.1663774746,	-2.0000000000
197,	-4.7500000000,	0.1315789474,	-2.0000000000
198,	-4.5000000000,	0.1315789474,	-2.0000000000
199,	-4.2500000000,	0.1315789474,	-2.0000000000
200,	-4.0000000000,	0.1315789474,	-2.0000000000
201,	-3.7500000000,	0.1315789474,	-2.0000000000
202,	-3.5000000000,	0.1315789474,	-2.0000000000
203,	-3.2500000000,	0.1315789474,	-2.0000000000
204,	-4.7500000000,	0.0967804201,	-2.0000000000
205,	-4.5000000000,	0.0535164724,	-2.0000000000
206,	-4.2500000000,	0.0365871714,	-2.0000000000
207,	-4.0000000000,	0.0315789474,	-2.0000000000
208,	-3.7500000000,	0.0365871714,	-2.0000000000
209,	-3.5000000000,	0.0535164724,	-2.0000000000
210,	-3.2500000000,	0.0967804201,	-2.0000000000
211,	-4.7500000000,	0.1577449458,	-1.6989322857
212,	-4.5000000000,	0.2009353658,	-1.6964110176
213,	-4.2500000000,	0.2178358952,	-1.6954244384
214,	-4.0000000000,	0.2228356077,	-1.6951325771
215,	-3.7500000000,	0.2178358952,	-1.6954244384
216,	-3.5000000000,	0.2009353658,	-1.6964110176
217,	-3.2500000000,	0.1577449458,	-1.6989322857
218,	-4.7500000000,	0.1230055592,	-1.7009602195
219,	-4.5000000000,	0.1230055592,	-1.7009602195
220,	-4.2500000000,	0.1230055592,	-1.7009602195
221,	-4.0000000000,	0.1230055592,	-1.7009602195
222,	-3.7500000000,	0.1230055592,	-1.7009602195
223,	-3.5000000000,	0.1230055592,	-1.7009602195
224,	-3.2500000000,	0.1230055592,	-1.7009602195
225,	-4.7500000000,	0.0882661725,	-1.7029881532
226,	-4.5000000000,	0.0450757525,	-1.7055094214
227,	-4.2500000000,	0.0281752232,	-1.7064960005
228,	-4.0000000000,	0.0231755107,	-1.7067878619
229,	-3.7500000000,	0.0281752232,	-1.7064960005
230,	-3.5000000000,	0.0450757525,	-1.7055094214
231,	-3.2500000000,	0.0882661725,	-1.7029881532
232,	-4.7500000000,	0.1345487010,	-1.4551382266
233,	-4.5000000000,	0.1774661432,	-1.4496735833
234,	-4.2500000000,	0.1942598556,	-1.4475352535
235,	-4.0000000000,	0.1992279683,	-1.4469026677
236,	-3.7500000000,	0.1942598556,	-1.4475352535
237,	-3.5000000000,	0.1774661432,	-1.4496735833
238,	-3.2500000000,	0.1345487010,	-1.4551382266
239,	-4.7500000000,	0.1000288788,	-1.4595336077
240,	-4.5000000000,	0.1000288788,	-1.4595336077
241,	-4.2500000000,	0.1000288788,	-1.4595336077
242,	-4.0000000000,	0.1000288788,	-1.4595336077
243,	-3.7500000000,	0.1000288788,	-1.4595336077
244,	-3.5000000000,	0.1000288788,	-1.4595336077
245,	-3.2500000000,	0.1000288788,	-1.4595336077
246,	-4.7500000000,	0.0655090566,	-1.4639289888
247,	-4.5000000000,	0.0225916144,	-1.4693936320
248,	-4.2500000000,	0.0057979019,	-1.4715319619
249,	-4.0000000000,	0.0008297893,	-1.4721645476
250,	-3.7500000000,	0.0057979019,	-1.4715319619
251,	-3.5000000000,	0.0225916144,	-1.4693936320
252,	-3.2500000000,	0.0655090566,	-1.4639289888
253,	-4.7500000000,	0.1009293756,	-1.2526506538
254,	-4.5000000000,	0.1434059804,	-1.2444343763
255,	-4.2500000000,	0.1600271920,	-1.2412193244
256,	-4.0000000000,	0.1649442734,	-1.2402682101
257,	-3.7500000000,	0.1600271920,	-1.2412193244
258,	-3.5000000000,	0.1434059804,	-1.2444343763
259,	-3.2500000000,	0.1009293756,	-1.2526506538
260,	-4.7500000000,	0.0667641326,	-1.2592592593
261,	-4.5000000000,	0.0667641326,	-1.2592592593
262,	-4.2500000000,	0.0667641326,	-1.2592592593
263,	-4.0000000000,	0.0667641326,	-1.2592592593
264,	-3.7500000000,	0.0667641326,	-1.2592592593
265,	-3.5000000000,	0.0667641326,	-1.2592592593
266,	-3.2500000000,	0.0667641326,	-1.2592592593
267,	-4.7500000000,	0.0325988895,	-1.2658678647
268,	-4.5000000000,	-0.0098777153,	-1.2740841422
269,	-4.2500000000,	-0.0264989269,	-1.2772991941
270,	-4.0000000000,	-0.0314160083,	-1.2782503084
271,	-3.7500000000,	-0.0264989269,	-1.2772991941
272,	-3.5000000000,	-0.0098777153,	-1.2740841422
273,	-3.2500000000,	0.0325988895,	-1.2658678647
274,	-4.7500000000,	0.0611946931,	-1.0756833864
275,	-4.5000000000,	0.1033019264,	-1.0657460793
276,	-4.2500000000,	0.1197786019,	-1.0618575839
277,	-4.0000000000,	0.1246529249,	-1.0607072436
278,	-3.7500000000,	0.1197786019,	-1.0618575839
279,	-3.5000000000,	0.1033019264,	-1.0657460793
280,	-3.2500000000,	0.0611946931,	-1.0756833864
281,	-4.7500000000,	0.0273265468,	-1.0836762689
282,	-4.5000000000,	0.0273265468,	-1.0836762689
283,	-4.2500000000,	0.0273265468,	-1.0836762689
284,	-4.0000000000,	0.0273265468,	-1.0836762689
285,	-3.7500000000,	0.0273265468,	-1.0836762689
286,	-3.5000000000,	0.0273265468,	-1.0836762689
287,	-3.2500000000,	0.0273265468,	-1.0836762689
288,	-4.7500000000,	-0.0065415994,	-1.0916691514
289,	-4.5000000000,	-0.0486488328,	-1.1016064584
290,	-4.2500000000,	-0.0651255082,	-1.1054949539
291,	-4.0000000000,	-0.0699998313,	-1.1066452941
292,	-3.7500000000,	-0.0651255082,	-1.1054949539
293,	-3.5000000000,	-0.0486488328,	-1.1016064584
294,	-3.2500000000,	-0.0065415994,	-1.0916691514
295,	-4.7500000000,	0.0196994941,	-0.9083308486
296,	-4.5000000000,	0.0618067275,	-0.8983935416
297,	-4.2500000000,	0.0782834030,	-0.8945050461
298,	-4.0000000000,	0.0831577260,	-0.8933547059
299,	-3.7500000000,	0.0782834030,	-0.8945050461
300,	-3.5000000000,	0.0618067275,	-0.8983935416
301,	-3.2500000000,	0.0196994941,	-0.9083308486
302,	-4.7500000000,	-0.0141686521,	-0.9163237311
303,	-4.5000000000,	-0.0141686521,	-0.9163237311
304,	-4.2500000000,	-0.0141686521,	-0.9163237311
305,	-4.0000000000,	-0.0141686521,	-0.9163237311
306,	-3.7500000000,	-0.0141686521,	-0.9163237311
307,	-3.5000000000,	-0.0141686521,	-0.9163237311
308,	-3.2500000000,	-0.0141686521,	-0.9163237311
309,	-4.7500000000,	-0.0480367983,	-0.9243166136
310,	-4.5000000000,	-0.0901440317,	-0.9342539207
311,	-4.2500000000,	-0.1066207071,	-0.9381424161
312,	-4.0000000000,	-0.1114950302,	-0.9392927564
313,	-3.7500000000,	-0.1066207071,	-0.9381424161
314,	-3.5000000000,	-0.0901440317,	-0.9342539207
315,	-3.2500000000,	-0.0480367983,	-0.9243166136
316,	-4.7500000000,	-0.0194409947,	-0.7341321353
317,	-4.5000000000,	0.0230356101,	-0.7259158578
318,	-4.2500000000,	0.0396568216,	-0.7227008059
319,	-4.0000000000,	0.0445739030,	-0.7217496916
320,	-3.7500000000,	0.0396568216,	-0.7227008059
321,	-3.5000000000,	0.0230356101,	-0.7259158578
322,	-3.2500000000,	-0.0194409947,	-0.7341321353
323,	-4.7500000000,	-0.0536062378,	-0.7407407407
324,	-4.5000000000,	-0.0536062378,	-0.7407407407
325,	-4.2500000000,	-0.0536062378,	-0.7407407407
326,	-4.0000000000,	-0.0536062378,	-0.7407407407
327,	-3.7500000000,	-0.0536062378,	-0.7407407407
328,	-3.5000000000,	-0.0536062378,	-0.7407407407
329,	-3.2500000000,	-0.0536062378,	-0.7407407407
330,	-4.7500000000,	-0.0877714809,	-0.7473493462
331,	-4.5000000000,	-0.1302480857,	-0.7555656237
332,	-4.2500000000,	-0.1468692972,	-0.7587806756
333,	-4.0000000000,	-0.1517863786,	-0.7597317899
334,	-3.7500000000,	-0.1468692972,	-0.7587806756
335,	-3.5000000000,	-0.1302480857,	-0.7555656237
336,	-3.2500000000,	-0.0877714809,	-0.7473493462
337,	-4.7500000000,	-0.0523511618,	-0.5360710112
338,	-4.5000000000,	-0.0094337196,	-0.5306063680
339,	-4.2500000000,	0.0073599928,	-0.5284680381
340,	-4.0000000000,	0.0123281054,	-0.5278354524
341,	-3.7500000000,	0.0073599928,	-0.5284680381
342,	-3.5000000000,	-0.0094337196,	-0.5306063680
343,	-3.2500000000,	-0.0523511618,	-0.5360710112
344,	-4.7500000000,	-0.0868709840,	-0.5404663923
345,	-4.5000000000,	-0.0868709840,	-0.5404663923
346,	-4.2500000000,	-0.0868709840,	-0.5404663923
347,	-4.0000000000,	-0.0868709840,	-0.5404663923
348,	-3.7500000000,	-0.0868709840,	-0.5404663923
349,	-3.5000000000,	-0.0868709840,	-0.5404663923
350,	-3.2500000000,	-0.0868709840,	-0.5404663923
351,	-4.7500000000,	-0.1213908062,	-0.5448617734
352,	-4.5000000000,	-0.1643082485,	-0.5503264167
353,	-4.2500000000,	-0.1811019609,	-0.5524647465
354,	-4.0000000000,	-0.1860700735,	-0.5530973323
355,	-3.7500000000,	-0.1811019609,	-0.5524647465
356,	-3.5000000000,	-0.1643082485,	-0.5503264167
357,	-3.2500000000,	-0.1213908062,	-0.5448617734
358,	-4.7500000000,	-0.0751082778,	-0.2970118468
359,	-4.5000000000,	-0.0319178578,	-0.2944905786
360,	-4.2500000000,	-0.0150173284,	-0.2935039995
361,	-4.0000000000,	-0.0100176159,	-0.2932121381
362,	-3.7500000000,	-0.0150173284,	-0.2935039995
363,	-3.5000000000,	-0.0319178578,	-0.2944905786
364,	-3.2500000000,	-0.0751082778,	-0.2970118468
365,	-4.7500000000,	-0.1098476644,	-0.2990397805
366,	-4.5000000000,	-0.1098476644,	-0.2990397805
367,	-4.2500000000,	-0.1098476644,	-0.2990397805
368,	-4.0000000000,	-0.1098476644,	-0.2990397805
369,	-3.7500000000,	-0.1098476644,	-0.2990397805
370,	-3.5000000000,	-0.1098476644,	-0.2990397805
371,	-3.2500000000,	-0.1098476644,	-0.2990397805
372,	-4.7500000000,	-0.1445870511,	-0.3010677143
373,	-4.5000000000,	-0.1877774711,	-0.3035889824
374,	-4.2500000000,	-0.2046780004,	-0.3045755616
375,	-4.0000000000,	-0.2096777129,	-0.3048674229
376,	-3.7500000000,	-0.2046780004,	-0.3045755616
377,	-3.5000000000,	-0.1877774711,	-0.3035889824
378,	-3.2500000000,	-0.1445870511,	-0.3010677143
379,	-4.7500000000,	-0.0836225254,	0.0000000000
380,	-4.5000000000,	-0.0403585777,	0.0000000000
381,	-4.2500000000,	-0.0234292767,	0.0000000000
382,	-4.0000000000,	-0.0184210526,	0.0000000000
383,	-3.7500000000,	-0.0234292767,	0.0000000000
384,	-3.5000000000,	-0.0403585777,	0.0000000000
385,	-3.2500000000,	-0.0836225254,	0.0000000000
386,	-4.7500000000,	-0.1184210526,	0.0000000000
387,	-4.5000000000,	-0.1184210526,	0.0000000000
388,	-4.2500000000,	-0.1184210526,	0.0000000000
389,	-4.0000000000,	-0.1184210526,	0.0000000000
390,	-3.7500000000,	-0.1184210526,	0.0000000000
391,	-3.5000000000,	-0.1184210526,	0.0000000000
392,	-3.2500000000,	-0.1184210526,	0.0000000000
393,	-4.7500000000,	-0.1532195799,	0.0000000000
394,	-4.5000000000,	-0.1964835276,	0.0000000000
395,	-4.2500000000,	-0.2134128286,	0.0000000000
396,	-4.0000000000,	-0.2184210526,	0.0000000000
397,	-3.7500000000,	-0.2134128286,	0.0000000000
398,	-3.5000000000,	-0.1964835276,	0.0000000000
399,	-3.2500000000,	-0.1532195799,	0.0000000000
400,	-4.7500000000,	-0.0836225254,	0.0000000000
401,	-4.5000000000,	-0.0403585777,	0.0000000000
402,	-4.2500000000,	-0.0234292767,	0.0000000000
403,	-4.0000000000,	-0.0184210526,	0.0000000000
404,	-3.7500000000,	-0.0234292767,	0.0000000000
405,	-3.5000000000,	-0.0403585777,	0.0000000000
406,	-3.2500000000,	-0.0836225254,	0.0000000000
407,	-4.7500000000,	-0.1184210526,	0.0000000000
408,	-4.5000000000,	-0.1184210526,	0.0000000000
409,	-4.2500000000,	-0.1184210526,	0.0000000000
410,	-4.0000000000,	-0.1184210526,	0.0000000000
411,	-3.7500000000,	-0.1184210526,	0.0000000000
412,	-3.5000000000,	-0.1184210526,	0.0000000000
413,	-3.2500000000,	-0.1184210526,	0.0000000000
414,	-4.7500000000,	-0.1532195799,	0.0000000000
415,	-4.5000000000,	-0.1964835276,	0.0000000000
416,	-4.2500000000,	-0.2134128286,	0.0000000000
417,	-4.0000000000,	-0.2184210526,	0.0000000000
418,	-3.7500000000,	-0.2134128286,	0.0000000000
419,	-3.5000000000,	-0.1964835276,	0.0000000000
420,	-3.2500000000,	-0.1532195799,	0.0000000000
421,	-4.7500000000,	-0.0751082778,	0.2970118468
422,	-4.5000000000,	-0.0319178578,	0.2944905786
423,	-4.2500000000,	-0.0150173284,	0.2935039995
424,	-4.0000000000,	-0.0100176159,	0.2932121381
425,	-3.7500000000,	-0.0150173284,	0.2935039995
426,	-3.5000000000,	-0.0319178578,	0.2944905786
427,	-3.2500000000,	-0.0751082778,	0.2970118468
428,	-4.7500000000,	-0.1098476644,	0.2990397805
429,	-4.5000000000,	-0.1098476644,	0.2990397805
430,	-4.2500000000,	-0.1098476644,	0.2990397805
431,	-4.0000000000,	-0.1098476644,	0.2990397805
432,	-3.7500000000,	-0.1098476644,	0.2990397805
433,	-3.5000000000,	-0.1098476644,	0.2990397805
434,	-3.2500000000,	-0.1098476644,	0.2990397805
435,	-4.7500000000,	-0.1445870511,	0.3010677143
436,	-4.5000000000,	-0.1877774711,	0.3035889824
437,	-4.2500000000,	-0.2046780004,	0.3045755616
438,	-4.0000000000,	-0.2096777129,	0.3048674229
439,	-3.7500000000,	-0.2046780004,	0.3045755616
440,	-3.5000000000,	-0.1877774711,	0.3035889824
441,	-3.2500000000,	-0.1445870511,	0.3010677143
442,	-4.7500000000,	-0.0523511618,	0.5360710112
443,	-4.5000000000,	-0.0094337196,	0.5306063680
444,	-4.2500000000,	0.0073599928,	0.5284680381
445,	-4.0000000000,	0.0123281054,	0.5278354524
446,	-3.7500000000,	0.0073599928,	0.5284680381
447,	-3.5000000000,	-0.0094337196,	0.5306063680
448,	-3.2500000000,	-0.0523511618,	0.5360710112
449,	-4.7500000000,	-0.0868709840,	0.5404663923
450,	-4.5000000000,	-0.0868709840,	0.5404663923
451,	-4.2500000000,	-0.0868709840,	0.5404663923
452,	-4.0000000000,	-0.0868709840,	0.5404663923
453,	-3.7500000000,	-0.0868709840,	0.5404663923
454,	-3.5000000000,	-0.0868709840,	0.5404663923
455,	-3.2500000000,	-0.0868709840,	0.5404663923
456,	-4.7500000000,	-0.1213908062,	0.5448617734
457,	-4.5000000000,	-0.1643082485,	0.5503264167
458,	-4.2500000000,	-0.1811019609,	0.5524647465
459,	-4.0000000000,	-0.1860700735,	0.5530973323
460,	-3.7500000000,	-0.1811019609,	0.5524647465
461,	-3.5000000000,	-0.1643082485,	0.5503264167
462,	-3.2500000000,	-0.1213908062,	0.5448617734
463,	-4.7500000000,	-0.0194409947,	0.7341321353
464,	-4.5000000000,	0.0230356101,	0.7259158578
465,	-4.2500000000,	0.0396568216,	0.7227008059
466,	-4.0000000000,	0.0445739030,	0.7217496916
467,	-3.7500000000,	0.0396568216,	0.7227008059
468,	-3.5000000000,	0.0230356101,	0.7259158578
469,	-3.2500000000,	-0.0194409947,	0.7341321353
470,	-4.7500000000,	-0.0536062378,	0.7407407407
471,	-4.5000000000,	-0.0536062378,	0.7407407407
472,	-4.2500000000,	-0.0536062378,	0.7407407407
473,	-4.0000000000,	-0.0536062378,	0.7407407407
474,	-3.7500000000,	-0.0536062378,	0.7407407407
475,	-3.5000000000,	-0.0536062378,	0.7407407407
476,	-3.2500000000,	-0.0536062378,	0.7407407407
477,	-4.7500000000,	-0.0877714809,	0.7473493462
478,	-4.5000000000,	-0.1302480857,	0.7555656237
479,	-4.2500000000,	-0.1468692972,	0.7587806756
480,	-4.0000000000,	-0.1517863786,	0.7597317899
481,	-3.7500000000,	-0.1468692972,	0.7587806756
482,	-3.5000000000,	-0.1302480857,	0.7555656237
483,	-3.2500000000,	-0.0877714809,	0.7473493462
484,	-4.7500000000,	0.0196994941,	0.9083308486
485,	-4.5000000000,	0.0618067275,	0.8983935416
486,	-4.2500000000,	0.0782834030,	0.8945050461
487,	-4.0000000000,	0.0831577260,	0.8933547059
488,	-3.7500000000,	0.0782834030,	0.8945050461
489,	-3.5000000000,	0.0618067275,	0.8983935416
490,	-3.2500000000,	0.0196994941,	0.9083308486
491,	-4.7500000000,	-0.0141686521,	0.9163237311
492,	-4.5000000000,	-0.0141686521,	0.9163237311
493,	-4.2500000000,	-0.0141686521,	0.9163237311
494,	-4.0000000000,	-0.0141686521,	0.9163237311
495,	-3.7500000000,	-0.0141686521,	0.9163237311
496,	-3.5000000000,	-0.0141686521,	0.9163237311
497,	-3.2500000000,	-0.0141686521,	0.9163237311
498,	-4.7500000000,	-0.0480367983,	0.9243166136
499,	-4.5000000000,	-0.0901440317,	0.9342539207
500,	-4.2500000000,	-0.1066207071,	0.9381424161
501,	-4.0000000000,	-0.1114950302,	0.9392927564
502,	-3.7500000000,	-0.1066207071,	0.9381424161
503,	-3.5000000000,	-0.0901440317,	0.9342539207
504,	-3.2500000000,	-0.0480367983,	0.9243166136
505,	-4.7500000000,	0.0611946931,	1.0756833864
506,	-4.5000000000,	0.1033019264,	1.0657460793
507,	-4.2500000000,	0.1197786019,	1.0618575839
508,	-4.0000000000,	0.1246529249,	1.0607072436
509,	-3.7500000000,	0.1197786019,	1.0618575839
510,	-3.5000000000,	0.1033019264,	1.0657460793
511,	-3.2500000000,	0.0611946931,	1.0756833864
512,	-4.7500000000,	0.0273265468,	1.0836762689
513,	-4.5000000000,	0.0273265468,	1.0836762689
514,	-4.2500000000,	0.0273265468,	1.0836762689
515,	-4.0000000000,	0.0273265468,	1.0836762689
516,	-3.7500000000,	0.0273265468,	1.0836762689
517,	-3.5000000000,	0.0273265468,	1.0836762689
518,	-3.2500000000,	0.0273265468,	1.0836762689
519,	-4.7500000000,	-0.0065415994,	1.0916691514
520,	-4.5000000000,	-0.0486488328,	1.1016064584
521,	-4.2500000000,	-0.0651255082,	1.1054949539
522,	-4.0000000000,	-0.0699998313,	1.1066452941
523,	-3.7500000000,	-0.0651255082,	1.1054949539
524,	-3.5000000000,	-0.0486488328,	1.1016064584
525,	-3.2500000000,	-0.0065415994,	1.0916691514
526,	-4.7500000000,	0.1009293756,	1.2526506538
527,	-4.5000000000,	0.1434059804,	1.2444343763
528,	-4.2500000000,	0.1600271920,	1.2412193244
529,	-4.0000000000,	0.1649442734,	1.2402682101
530,	-3.7500000000,	0.1600271920,	1.2412193244
531,	-3.5000000000,	0.1434059804,	1.2444343763
532,	-3.2500000000,	0.1009293756,	1.2526506538
533,	-4.7500000000,	0.0667641326,	1.2592592593
534,	-4.5000000000,	0.0667641326,	1.2592592593
535,	-4.2500000000,	0.0667641326,	1.2592592593
536,	-4.0000000000,	0.0667641326,	1.2592592593
537,	-3.7500000000,	0.0667641326,	1.2592592593
538,	-3.5000000000,	0.0667641326,	1.2592592593
539,	-3.2500000000,	0.0667641326,	1.2592592593
540,	-4.7500000000,	0.0325988895,	1.2658678647
541,	-4.5000000000,	-0.0098777153,	1.2740841422
542,	-4.2500000000,	-0.0264989269,	1.2772991941
543,	-4.0000000000,	-0.0314160083,	1.2782503084
544,	-3.7500000000,	-0.0264989269,	1.2772991941
545,	-3.5000000000,	-0.0098777153,	1.2740841422
546,	-3.2500000000,	0.0325988895,	1.2658678647
547,	-4.7500000000,	0.1345487010,	1.4551382266
548,	-4.5000000000,	0.1774661432,	1.4496735833
549,	-4.2500000000,	0.1942598556,	1.4475352535
550,	-4.0000000000,	0.1992279683,	1.4469026677
551,	-3.7500000000,	0.1942598556,	1.4475352535
552,	-3.5000000000,	0.1774661432,	1.4496735833
553,	-3.2500000000,	0.1345487010,	1.4551382266
554,	-4.7500000000,	0.1000288788,	1.4595336077
555,	-4.5000000000,	0.1000288788,	1.4595336077
556,	-4.2500000000,	0.1000288788,	1.4595336077
557,	-4.0000000000,	0.1000288788,	1.4595336077
558,	-3.7500000000,	0.1000288788,	1.4595336077
559,	-3.5000000000,	0.1000288788,	1.4595336077
560,	-3.2500000000,	0.1000288788,	1.4595336077
561,	-4.7500000000,	0.0655090566,	1.4639289888
562,	-4.5000000000,	0.0225916144,	1.4693936320
563,	-4.2500000000,	0.0057979019,	1.4715319619
564,	-4.0000000000,	0.0008297893,	1.4721645476
565,	-3.7500000000,	0.0057979019,	1.4715319619
566,	-3.5000000000,	0.0225916144,	1.4693936320
567,	-3.2500000000,	0.0655090566,	1.4639289888
568,	-4.7500000000,	0.1577449458,	1.6989322857
569,	-4.5000000000,	0.2009353658,	1.6964110176
570,	-4.2500000000,	0.2178358952,	1.6954244384
571,	-4.0000000000,	0.2228356077,	1.6951325771
572,	-3.7500000000,	0.2178358952,	1.6954244384
573,	-3.5000000000,	0.2009353658,	1.6964110176
574,	-3.2500000000,	0.1577449458,	1.6989322857
575,	-4.7500000000,	0.1230055592,	1.7009602195
576,	-4.5000000000,	0.1230055592,	1.7009602195
577,	-4.2500000000,	0.1230055592,	1.7009602195
578,	-4.0000000000,	0.1230055592,	1.7009602195
579,	-3.7500000000,	0.1230055592,	1.7009602195
580,	-3.5000000000,	0.1230055592,	1.7009602195
581,	-3.2500000000,	0.1230055592,	1.7009602195
582,	-4.7500000000,	0.0882661725,	1.7029881532
583,	-4.5000000000,	0.0450757525,	1.7055094214
584,	-4.2500000000,	0.0281752232,	1.7064960005
585,	-4.0000000000,	0.0231755107,	1.7067878619
586,	-3.7500000000,	0.0281752232,	1.7064960005
587,	-3.5000000000,	0.0450757525,	1.7055094214
588,	-3.2500000000,	0.0882661725,	1.7029881532
589,	-4.7500000000,	0.1663774746,	2.0000000000
590,	-4.5000000000,	0.2096414223,	2.0000000000
591,	-4.2500000000,	0.2265707233,	2.0000000000
592,	-4.0000000000,	0.2315789474,	2.0000000000
593,	-3.7500000000,	0.2265707233,	2.0000000000
594,	-3.5000000000,	0.2096414223,	2.0000000000
595,	-3.2500000000,	0.1663774746,	2.0000000000
596,	-4.7500000000,	0.1315789474,	2.0000000000
597,	-4.5000000000,	0.1315789474,	2.0000000000
598,	-4.2500000000,	0.1315789474,	2.0000000000
599,	-4.0000000000,	0.1315789474,	2.0000000000
600,	-3.7500000000,	0.1315789474,	2.0000000000
601,	-3.5000000000,	0.1315789474,	2.0000000000
602,	-3.2500000000,	0.1315789474,	2.0000000000
603,	-4.7500000000,	0.0967804201,	2.0000000000
604,	-4.5000000000,	0.0535164724,	2.0000000000
605,	-4.2500000000,	0.0365871714,	2.0000000000
606,	-4.0000000000,	0.0315789474,	2.0000000000
607,	-3.7500000000,	0.0365871714,	2.0000000000
608,	-3.5000000000,	0.0535164724,	2.0000000000
609,	-3.2500000000,	0.0967804201,	2.0000000000
610,	-4.7500000000,	0.1577449458,	2.3010677143
611,	-4.5000000000,	0.2009353658,	2.3035889824
612,	-4.2500000000,	0.2178358952,	2.3045755616
613,	-4.0000000000,	0.2228356077,	2.3048674229
614,	-3.7500000000,	0.2178358952,	2.3045755616
615,	-3.5000000000,	0.2009353658,	2.3035889824
616,	-3.2500000000,	0.1577449458,	2.3010677143
617,	-4.7500000000,	0.1230055592,	2.2990397805
618,	-4.5000000000,	0.1230055592,	2.2990397805
619,	-4.2500000000,	0.1230055592,	2.2990397805
620,	-4.0000000000,	0.1230055592,	2.2990397805
621,	-3.7500000000,	0.1230055592,	2.2990397805
622,	-3.5000000000,	0.1230055592,	2.2990397805
623,	-3.2500000000,	0.1230055592,	2.2990397805
624,	-4.7500000000,	0.0882661725,	2.2970118468
625,	-4.5000000000,	0.0450757525,	2.2944905786
626,	-4.2500000000,	0.0281752232,	2.2935039995
627,	-4.0000000000,	0.0231755107,	2.2932121381
628,	-3.7500000000,	0.0281752232,	2.2935039995
629,	-3.5000000000,	0.0450757525,	2.2944905786
630,	-3.2500000000,	0.0882661725,	2.2970118468
631,	-4.7500000000,	0.1345487010,	2.5448617734
632,	-4.5000000000,	0.1774661432,	2.5503264167
633,	-4.2500000000,	0.1942598556,	2.5524647465
634,	-4.0000000000,	0.1992279683,	2.5530973323
635,	-3.7500000000,	0.1942598556,	2.5524647465
636,	-3.5000000000,	0.1774661432,	2.5503264167
637,	-3.2500000000,	0.1345487010,	2.5448617734
638,	-4.7500000000,	0.1000288788,	2.5404663923
639,	-4.5000000000,	0.1000288788,	2.5404663923
640,	-4.2500000000,	0.1000288788,	2.5404663923
641,	-4.0000000000,	0.1000288788,	2.5404663923
642,	-3.7500000000,	0.1000288788,	2.5404663923
643,	-3.5000000000,	0.1000288788,	2.5404663923
644,	-3.2500000000,	0.1000288788,	2.5404663923
645,	-4.7500000000,	0.0655090566,	2.5360710112
646,	-4.5000000000,	0.0225916144,	2.5306063680
647,	-4.2500000000,	0.0057979019,	2.5284680381
648,	-4.0000000000,	0.0008297893,	2.5278354524
649,	-3.7500000000,	0.0057979019,	2.5284680381
650,	-3.5000000000,	0.0225916144,	2.5306063680
651,	-3.2500000000,	0.0655090566,	2.5360710112
652,	-4.7500000000,	0.1009293756,	2.7473493462
653,	-4.5000000000,	0.1434059804,	2.7555656237
654,	-4.2500000000,	0.1600271920,	2.7587806756
655,	-4.0000000000,	0.1649442734,	2.7597317899
656,	-3.7500000000,	0.1600271920,	2.7587806756
657,	-3.5000000000,	0.1434059804,	2.7555656237
658,	-3.2500000000,	0.1009293756,	2.7473493462
659,	-4.7500000000,	0.0667641326,	2.7407407407
660,	-4.5000000000,	0.0667641326,	2.7407407407
661,	-4.2500000000,	0.0667641326,	2.7407407407
662,	-4.0000000000,	0.0667641326,	2.7407407407
663,	-3.7500000000,	0.0667641326,	2.7407407407
664,	-3.5000000000,	0.0667641326,	2.7407407407
665,	-3.2500000000,	0.0667641326,	2.7407407407
666,	-4.7500000000,	0.0325988895,	2.7341321353
667,	-4.5000000000,	-0.0098777153,	2.7259158578
668,	-4.2500000000,	-0.0264989269,	2.7227008059
669,	-4.0000000000,	-0.0314160083,	2.7217496916
670,	-3.7500000000,	-0.0264989269,	2.7227008059
671,	-3.5000000000,	-0.0098777153,	2.7259158578
672,	-3.2500000000,	0.0325988895,	2.7341321353
673,	-4.7500000000,	0.0611946931,	2.9243166136
674,	-4.5000000000,	0.1033019264,	2.9342539207
675,	-4.2500000000,	0.1197786019,	2.9381424161
676,	-4.0000000000,	0.1246529249,	2.9392927564
677,	-3.7500000000,	0.1197786019,	2.9381424161
678,	-3.5000000000,	0.1033019264,	2.9342539207
679,	-3.2500000000,	0.0611946931,	2.9243166136
680,	-4.7500000000,	0.0273265468,	2.9163237311
681,	-4.5000000000,	0.0273265468,	2.9163237311
682,	-4.2500000000,	0.0273265468,	2.9163237311
683,	-4.0000000000,	0.0273265468,	2.9163237311
684,	-3.7500000000,	0.0273265468,	2.9163237311
685,	-3.5000000000,	0.0273265468,	2.9163237311
686,	-3.2500000000,	0.0273265468,	2.9163237311
687,	-4.7500000000,	-0.0065415994,	2.9083308486
688,	-4.5000000000,	-0.0486488328,	2.8983935416
689,	-4.2500000000,	-0.0651255082,	2.8945050461
690,	-4.0000000000,	-0.0699998313,	2.8933547059
691,	-3.7500000000,	-0.0651255082,	2.8945050461
692,	-3.5000000000,	-0.0486488328,	2.8983935416
693,	-3.2500000000,	-0.0065415994,	2.9083308486
694,	-4.7500000000,	0.0196994941,	3.0916691514
695,	-4.5000000000,	0.0618067275,	3.1016064584
696,	-4.2500000000,	0.0782834030,	3.1054949539
697,	-4.0000000000,	0.0831577260,	3.1066452941
698,	-3.7500000000,	0.0782834030,	3.1054949539
699,	-3.5000000000,	0.0618067275,	3.1016064584
700,	-3.2500000000,	0.0196994941,	3.0916691514
701,	-4.7500000000,	-0.0141686521,	3.0836762689
702,	-4.5000000000,	-0.0141686521,	3.0836762689
703,	-4.2500000000,	-0.0141686521,	3.0836762689
704,	-4.0000000000,	-0.0141686521,	3.0836762689
705,	-3.7500000000,	-0.0141686521,	3.0836762689
706,	-3.5000000000,	-0.0141686521,	3.0836762689
707,	-3.2500000000,	-0.0141686521,	3.0836762689
708,	-4.7500000000,	-0.0480367983,	3.0756833864
709,	-4.5000000000,	-0.0901440317,	3.0657460793
710,	-4.2500000000,	-0.1066207071,	3.0618575839
711,	-4.0000000000,	-0.1114950302,	3.0607072436
712,	-3.7500000000,	-0.1066207071,	3.0618575839
713,	-3.5000000000,	-0.0901440317,	3.0657460793
714,	-3.2500000000,	-0.0480367983,	3.0756833864
715,	-4.7500000000,	-0.0194409947,	3.2658678647
716,	-4.5000000000,	0.0230356101,	3.2740841422
717,	-4.2500000000,	0.0396568216,	3.2772991941
718,	-4.0000000000,	0.0445739030,	3.2782503084
719,	-3.7500000000,	0.0396568216,	3.2772991941
720,	-3.5000000000,	0.0230356101,	3.2740841422
721,	-3.2500000000,	-0.0194409947,	3.2658678647
722,	-4.7500000000,	-0.0536062378,	3.2592592593
723,	-4.5000000000,	-0.0536062378,	3.2592592593
724,	-4.2500000000,	-0.0536062378,	3.2592592593
725,	-4.0000000000,	-0.0536062378,	3.2592592593
726,	-3.7500000000,	-0.0536062378,	3.2592592593
727,	-3.5000000000,	-0.0536062378,	3.2592592593
728,	-3.2500000000,	-0.0536062378,	3.2592592593
729,	-4.7500000000,	-0.0877714809,	3.2526506538
730,	-4.5000000000,	-0.1302480857,	3.2444343763
731,	-4.2500000000,	-0.1468692972,	3.2412193244
732,	-4.0000000000,	-0.1517863786,	3.2402682101
733,	-3.7500000000,	-0.1468692972,	3.2412193244
734,	-3.5000000000,	-0.1302480857,	3.2444343763
735,	-3.2500000000,	-0.0877714809,	3.2526506538
736,	-4.7500000000,	-0.0523511618,	3.4639289888
737,	-4.5000000000,	-0.0094337196,	3.4693936320
738,	-4.2500000000,	0.0073599928,	3.4715319619
739,	-4.0000000000,	0.0123281054,	3.4721645476
740,	-3.7500000000,	0.0073599928,	3.4715319619
741,	-3.5000000000,	-0.0094337196,	3.4693936320
742,	-3.2500000000,	-0.0523511618,	3.4639289888
743,	-4.7500000000,	-0.0868709840,	3.4595336077
744,	-4.5000000000,	-0.0868709840,	3.4595336077
745,	-4.2500000000,	-0.0868709840,	3.4595336077
746,	-4.0000000000,	-0.0868709840,	3.4595336077
747,	-3.7500000000,	-0.0868709840,	3.4595336077
748,	-3.5000000000,	-0.0868709840,	3.4595336077
749,	-3.2500000000,	-0.0868709840,	3.4595336077
750,	-4.7500000000,	-0.1213908062,	3.4551382266
751,	-4.5000000000,	-0.1643082485,	3.4496735833
752,	-4.2500000000,	-0.1811019609,	3.4475352535
753,	-4.0000000000,	-0.1860700735,	3.4469026677
754,	-3.7500000000,	-0.1811019609,	3.4475352535
755,	-3.5000000000,	-0.1643082485,	3.4496735833
756,	-3.2500000000,	-0.1213908062,	3.4551382266
757,	-4.7500000000,	-0.0751082778,	3.7029881532
758,	-4.5000000000,	-0.0319178578,	3.7055094214
759,	-4.2500000000,	-0.0150173284,	3.7064960005
760,	-4.0000000000,	-0.0100176159,	3.7067878619
761,	-3.7500000000,	-0.0150173284,	3.7064960005
762,	-3.5000000000,	-0.0319178578,	3.7055094214
763,	-3.2500000000,	-0.0751082778,	3.7029881532
764,	-4.7500000000,	-0.1098476644,	3.7009602195
765,	-4.5000000000,	-0.1098476644,	3.7009602195
766,	-4.2500000000,	-0.1098476644,	3.7009602195
767,	-4.0000000000,	-0.1098476644,	3.7009602195
768,	-3.7500000000,	-0.1098476644,	3.7009602195
769,	-3.5000000000,	-0.1098476644,	3.7009602195
770,	-3.2500000000,	-0.1098476644,	3.7009602195
771,	-4.7500000000,	-0.1445870511,	3.6989322857
772,	-4.5000000000,	-0.1877774711,	3.6964110176
773,	-4.2500000000,	-0.2046780004,	3.6954244384
774,	-4.0000000000,	-0.2096777129,	3.6951325771
775,	-3.7500000000,	-0.2046780004,	3.6954244384
776,	-3.5000000000,	-0.1877774711,	3.6964110176
777,	-3.2500000000,	-0.1445870511,	3.6989322857
778,	-4.7500000000,	-0.0836225254,	4.0000000000
779,	-4.5000000000,	-0.0403585777,	4.0000000000
780,	-4.2500000000,	-0.0234292767,	4.0000000000
781,	-4.0000000000,	-0.0184210526,	4.0000000000
782,	-3.7500000000,	-0.0234292767,	4.0000000000
783,	-3.5000000000,	-0.0403585777,	4.0000000000
784,	-3.2500000000,	-0.0836225254,	4.0000000000
785,	-4.7500000000,	-0.1184210526,	4.0000000000
786,	-4.5000000000,	-0.1184210526,	4.0000000000
787,	-4.2500000000,	-0.1184210526,	4.0000000000
788,	-4.0000000000,	-0.1184210526,	4.0000000000
789,	-3.7500000000,	-0.1184210526,	4.0000000000
790,	-3.5000000000,	-0.1184210526,	4.0000000000
791,	-3.2500000000,	-0.1184210526,	4.0000000000
792,	-4.7500000000,	-0.1532195799,	4.0000000000
793,	-4.5000000000,	-0.1964835276,	4.0000000000
794,	-4.2500000000,	-0.2134128286,	4.0000000000
795,	-4.0000000000,	-0.2184210526,	4.0000000000
796,	-3.7500000000,	-0.2134128286,	4.0000000000
797,	-3.5000000000,	-0.1964835276,	4.0000000000
798,	-3.2500000000,	-0.1532195799,	4.0000000000
799,	-2.7500000000,	0.1532195799,	-4.0000000000
800,	-2.5000000000,	0.1964835276,	-4.0000000000
801,	-2.2500000000,	0.2134128286,	-4.0000000000
802,	-2.0000000000,	0.2184210526,	-4.0000000000
803,	-1.7500000000,	0.2134128286,	-4.0000000000
804,	-1.5000000000,	0.1964835276,	-4.0000000000
805,	-1.2500000000,	0.1532195799,	-4.0000000000
806,	-2.7500000000,	0.1184210526,	-4.0000000000
807,	-2.5000000000,	0.1184210526,	-4.0000000000
808,	-2.2500000000,	0.1184210526,	-4.0000000000
809,	-2.0000000000,	0.1184210526,	-4.0000000000
810,	-1.7500000000,	0.1184210526,	-4.0000000000
811,	-1.5000000000,	0.1184210526,	-4.0000000000
812,	-1.2500000000,	0.1184210526,	-4.0000000000
813,	-2.7500000000,	0.0836225254,	-4.0000000000
814,	-2.5000000000,	0.0403585777,	-4.0000000000
815,	-2.2500000000,	0.0234292767,	-4.0000000000
816,	-2.0000000000,	0.0184210526,	-4.0000000000
817,	-1.7500000000,	0.0234292767,	-4.0000000000
818,	-1.5000000000,	0.0403585777,	-4.0000000000
819,	-1.2500000000,	0.0836225254,	-4.0000000000
820,	-2.7500000000,	0.1445870511,	-3.6989322857
821,	-2.5000000000,	0.1877774711,	-3.6964110176
822,	-2.2500000000,	0.2046780004,	-3.6954244384
823,	-2.0000000000,	0.2096777129,	-3.6951325771
824,	-1.7500000000,	0.2046780004,	-3.6954244384
825,	-1.5000000000,	0.1877774711,	-3.6964110176
826,	-1.2500000000,	0.1445870511,	-3.6989322857
827,	-2.7500000000,	0.1098476644,	-3.7009602195
828,	-2.5000000000,	0.1098476644,	-3.7009602195
829,	-2.2500000000,	0.1098476644,	-3.7009602195
830,	-2.0000000000,	0.1098476644,	-3.7009602195
831,	-1.7500000000,	0.1098476644,	-3.7009602195
832,	-1.5000000000,	0.1098476644,	-3.7009602195
833,	-1.2500000000,	0.1098476644,	-3.7009602195
834,	-2.7500000000,	0.0751082778,	-3.7029881532
835,	-2.5000000000,	0.0319178578,	-3.7055094214
836,	-2.2500000000,	0.0150173284,	-3.7064960005
837,	-2.0000000000,	0.0100176159,	-3.7067878619
838,	-1.7500000000,	0.0150173284,	-3.7064960005
839,	-1.5000000000,	0.0319178578,	-3.7055094214
840,	-1.2500000000,	0.0751082778,	-3.7029881532
841,	-2.7500000000,	0.1213908062,	-3.4551382266
842,	-2.5000000000,	0.1643082485,	-3.4496735833
843,	-2.2500000000,	0.1811019609,	-3.4475352535
844,	-2.0000000000,	0.1860700735,	-3.4469026677
845,	-1.7500000000,	0.1811019609,	-3.4475352535
846,	-1.5000000000,	0.1643082485,	-3.4496735833
847,	-1.2500000000,	0.1213908062,	-3.4551382266
848,	-2.7500000000,	0.0868709840,	-3.4595336077
849,	-2.5000000000,	0.0868709840,	-3.4595336077
850,	-2.2500000000,	0.0868709840,	-3.4595336077
851,	-2.0000000000,	0.0868709840,	-3.4595336077
852,	-1.7500000000,	0.0868709840,	-3.4595336077
853,	-1.5000000000,	0.0868709840,	-3.4595336077
854,	-1.2500000000,	0.0868709840,	-3.4595336077
855,	-2.7500000000,	0.0523511618,	-3.4639289888
856,	-2.5000000000,	0.0094337196,	-3.4693936320
857,	-2.2500000000,	-0.0073599928,	-3.4715319619
858,	-2.0000000000,	-0.0123281054,	-3.4721645476
859,	-1.7500000000,	-0.0073599928,	-3.4715319619
860,	-1.5000000000,	0.0094337196,	-3.4693936320
861,	-1.2500000000,	0.0523511618,	-3.4639289888
862,	-2.7500000000,	0.0877714809,	-3.2526506538
863,	-2.5000000000,	0.1302480857,	-3.2444343763
864,	-2.2500000000,	0.1468692972,	-3.2412193244
865,	-2.0000000000,	0.1517863786,	-3.2402682101
866,	-1.7500000000,	0.1468692972,	-3.2412193244
867,	-1.5000000000,	0.1302480857,	-3.2444343763
868,	-1.2500000000,	0.0877714809,	-3.2526506538
869,	-2.7500000000,	0.0536062378,	-3.2592592593
870,	-2.5000000000,	0.0536062378,	-3.2592592593
871,	-2.2500000000,	0.0536062378,	-3.2592592593
872,	-2.0000000000,	0.0536062378,	-3.2592592593
873,	-1.7500000000,	0.0536062378,	-3.2592592593
874,	-1.5000000000,	0.0536062378,	-3.2592592593
875,	-1.2500000000,	0.0536062378,	-3.2592592593
876,	-2.7500000000,	0.0194409947,	-3.2658678647
877,	-2.5000000000,	-0.0230356101,	-3.2740841422
878,	-2.2500000000,	-0.0396568216,	-3.2772991941
879,	-2.0000000000,	-0.0445739030,	-3.2782503084
880,	-1.7500000000,	-0.0396568216,	-3.2772991941
881,	-1.5000000000,	-0.0230356101,	-3.2740841422
882,	-1.2500000000,	0.0194409947,	-3.2658678647
883,	-2.7500000000,	0.0480367983,	-3.0756833864
884,	-2.5000000000,	0.0901440317,	-3.0657460793
885,	-2.2500000000,	0.1066207071,	-3.0618575839
886,	-2.0000000000,	0.1114950302,	-3.0607072436
887,	-1.7500000000,	0.1066207071,	-3.0618575839
888,	-1.5000000000,	0.0901440317,	-3.0657460793
889,	-1.2500000000,	0.0480367983,	-3.0756833864
890,	-2.7500000000,	0.0141686521,	-3.0836762689
891,	-2.5000000000,	0.0141686521,	-3.0836762689
892,	-2.2500000000,	0.0141686521,	-3.0836762689
893,	-2.0000000000,	0.0141686521,	-3.0836762689
894,	-1.7500000000,	0.0141686521,	-3.0836762689
895,	-1.5000000000,	0.0141686521,	-3.0836762689
896,	-1.2500000000,	0.0141686521,	-3.0836762689
897,	-2.7500000000,	-0.0196994941,	-3.0916691514
898,	-2.5000000000,	-0.0618067275,	-3.1016064584
899,	-2.2500000000,	-0.0782834030,	-3.1054949539
900,	-2.0000000000,	-0.0831577260,	-3.1066452941
901,	-1.7500000000,	-0.0782834030,	-3.1054949539
902,	-1.5000000000,	-0.0618067275,	-3.1016064584
903,	-1.2500000000,	-0.0196994941,	-3.0916691514
904,	-2.7500000000,	0.0065415994,	-2.9083308486
905,	-2.5000000000,	0.0486488328,	-2.8983935416
906,	-2.2500000000,	0.0651255082,	-2.8945050461
907,	-2.0000000000,	0.0699998313,	-2.8933547059
908,	-1.7500000000,	0.0651255082,	-2.8945050461
909,	-1.5000000000,	0.0486488328,	-2.8983935416
910,	-1.2500000000,	0.0065415994,	-2.9083308486
911,	-2.7500000000,	-0.0273265468,	-2.9163237311
912,	-2.5000000000,	-0.0273265468,	-2.9163237311
913,	-2.2500000000,	-0.0273265468,	-2.9163237311
914,	-2.0000000000,	-0.0273265468,	-2.9163237311
915,	-1.7500000000,	-0.0273265468,	-2.9163237311
916,	-1.5000000000,	-0.0273265468,	-2.9163237311
917,	-1.2500000000,	-0.0273265468,	-2.9163237311
918,	-2.7500000000,	-0.0611946931,	-2.9243166136
919,	-2.5000000000,	-0.1033019264,	-2.9342539207
920,	-2.2500000000,	-0.1197786019,	-2.9381424161
921,	-2.0000000000,	-0.1246529249,	-2.9392927564
922,	-1.7500000000,	-0.1197786019,	-2.9381424161
923,	-1.5000000000,	-0.1033019264,	-2.9342539207
924,	-1.2500000000,	-0.0611946931,	-2.9243166136
925,	-2.7500000000,	-0.0325988895,	-2.7341321353
926,	-2.5000000000,	0.0098777153,	-2.7259158578
927,	-2.2500000000,	0.0264989269,	-2.7227008059
928,	-2.0000000000,	0.0314160083,	-2.7217496916
929,	-1.7500000000,	0.0264989269,	-2.7227008059
930,	-1.5000000000,	0.0098777153,	-2.7259158578
931,	-1.2500000000,	-0.0325988895,	-2.7341321353
932,	-2.7500000000,	-0.0667641326,	-2.7407407407
933,	-2.5000000000,	-0.0667641326,	-2.7407407407
934,	-2.2500000000,	-0.0667641326,	-2.7407407407
935,	-2.0000000000,	-0.0667641326,	-2.7407407407
936,	-1.7500000000,	-0.0667641326,	-2.7407407407
937,	-1.5000000000,	-0.0667641326,	-2.7407407407
938,	-1.2500000000,	-0.0667641326,	-2.7407407407
939,	-2.7500000000,	-0.1009293756,	-2.7473493462
940,	-2.5000000000,	-0.1434059804,	-2.7555656237
941,	-2.2500000000,	-0.1600271920,	-2.7587806756
942,	-2.0000000000,	-0.1649442734,	-2.7597317899
943,	-1.7500000000,	-0.1600271920,	-2.7587806756
944,	-1.5000000000,	-0.1434059804,	-2.7555656237
945,	-1.2500000000,	-0.1009293756,	-2.7473493462
946,	-2.7500000000,	-0.0655090566,	-2.5360710112
947,	-2.5000000000,	-0.0225916144,	-2.5306063680
948,	-2.2500000000,	-0.0057979019,	-2.5284680381
949,	-2.0000000000,	-0.0008297893,	-2.5278354524
950,	-1.7500000000,	-0.0057979019,	-2.5284680381
951,	-1.5000000000,	-0.0225916144,	-2.5306063680
952,	-1.2500000000,	-0.0655090566,	-2.5360710112
953,	-2.7500000000,	-0.1000288788,	-2.5404663923
954,	-2.5000000000,	-0.1000288788,	-2.5404663923
955,	-2.2500000000,	-0.1000288788,	-2.5404663923
956,	-2.0000000000,	-0.1000288788,	-2.5404663923
957,	-1.7500000000,	-0.1000288788,	-2.5404663923
958,	-1.5000000000,	-0.1000288788,	-2.5404663923
959,	-1.2500000000,	-0.1000288788,	-2.5404663923
960,	-2.7500000000,	-0.1345487010,	-2.5448617734
961,	-2.5000000000,	-0.1774661432,	-2.5503264167
962,	-2.2500000000,	-0.1942598556,	-2.5524647465
963,	-2.0000000000,	-0.1992279683,	-2.5530973323
964,	-1.7500000000,	-0.1942598556,	-2.5524647465
965,	-1.5000000000,	-0.1774661432,	-2.5503264167
966,	-1.2500000000,	-0.1345487010,	-2.5448617734
967,	-2.7500000000,	-0.0882661725,	-2.2970118468
968,	-2.5000000000,	-0.0450757525,	-2.2944905786
969,	-2.2500000000,	-0.0281752232,	-2.2935039995
970,	-2.0000000000,	-0.0231755107,	-2.2932121381
971,	-1.7500000000,	-0.0281752232,	-2.2935039995
972,	-1.5000000000,	-0.0450757525,	-2.2944905786
973,	-1.2500000000,	-0.0882661725,	-2.2970118468
974,	-2.7500000000,	-0.1230055592,	-2.2990397805
975,	-2.5000000000,	-0.1230055592,	-2.2990397805
976,	-2.2500000000,	-0.1230055592,	-2.2990397805
977,	-2.0000000000,	-0.1230055592,	-2.2990397805
978,	-1.7500000000,	-0.1230055592,	-2.2990397805
979,	-1.5000000000,	-0.1230055592,	-2.2990397805
980,	-1.2500000000,	-0.1230055592,	-2.2990397805
981,	-2.7500000000,	-0.1577449458,	-2.3010677143
982,	-2.5000000000,	-0.2009353658,	-2.3035889824
983,	-2.2500000000,	-0.2178358952,	-2.3045755616
984,	-2.0000000000,	-0.2228356077,	-2.3048674229
985,	-1.7500000000,	-0.2178358952,	-2.3045755616
986,	-1.5000000000,	-0.2009353658,	-2.3035889824
987,	-1.2500000000,	-0.1577449458,	-2.3010677143
988,	-2.7500000000,	-0.0967804201,	-2.0000000000
989,	-2.5000000000,	-0.0535164724,	-2.0000000000
990,	-2.2500000000,	-0.0365871714,	-2.0000000000
991,	-2.0000000000,	-0.0315789474,	-2.0000000000
992,	-1.7500000000,	-0.0365871714,	-2.0000000000
993,	-1.5000000000,	-0.0535164724,	-2.0000000000
994,	-1.2500000000,	-0.0967804201,	-2.0000000000
995,	-2.7500000000,	-0.1315789474,	-2.0000000000
996,	-2.5000000000,	-0.1315789474,	-2.0000000000
997,	-2.2500000000,	-0.1315789474,	-2.0000000000
998,	-2.0000000000,	-0.1315789474,	-2.0000000000
999,	-1.7500000000,	-0.1315789474,	-2.0000000000
1000,	-1.5000000000,	-0.1315789474,	-2.0000000000
1001,	-1.2500000000,	-0.1315789474,	-2.0000000000
1002,	-2.7500000000,	-0.1663774746,	-2.0000000000
1003,	-2.5000000000,	-0.2096414223,	-2.0000000000
1004,	-2.2500000000,	-0.2265707233,	-2.0000000000
1005,	-2.0000000000,	-0.2315789474,	-2.0000000000
1006,	-1.7500000000,	-0.2265707233,	-2.0000000000
1007,	-1.5000000000,	-0.2096414223,	-2.0000000000
1008,	-1.2500000000,	-0.1663774746,	-2.0000000000
1009,	-2.7500000000,	-0.0882661725,	-1.7029881532
1010,	-2.5000000000,	-0.0450757525,	-1.7055094214
1011,	-2.2500000000,	-0.0281752232,	-1.7064960005
1012,	-2.0000000000,	-0.0231755107,	-1.7067878619
1013,	-1.7500000000,	-0.0281752232,	-1.7064960005
1014,	-1.5000000000,	-0.0450757525,	-1.7055094214
1015,	-1.2500000000,	-0.0882661725,	-1.7029881532
1016,	-2.7500000000,	-0.1230055592,	-1.7009602195
1017,	-2.5000000000,	-0.1230055592,	-1.7009602195
1018,	-2.2500000000,	-0.1230055592,	-1.7009602195
1019,	-2.0000000000,	-0.1230055592,	-1.7009602195
1020,	-1.7500000000,	-0.1230055592,	-1.7009602195
1021,	-1.5000000000,	-0.1230055592,	-1.7009602195
1022,	-1.2500000000,	-0.1230055592,	-1.7009602195
1023,	-2.7500000000,	-0.1577449458,	-1.6989322857
1024,	-2.5000000000,	-0.2009353658,	-1.6964110176
1025,	-2.2500000000,	-0.2178358952,	-1.6954244384
1026,	-2.0000000000,	-0.2228356077,	-1.6951325771
1027,	-1.7500000000,	-0.2178358952,	-1.6954244384
1028,	-1.5000000000,	-0.2009353658,	-1.6964110176
1029,	-1.2500000000,	-0.1577449458,	-1.6989322857
1030,	-2.7500000000,	-0.0655090566,	-1.4639289888
1031,	-2.5000000000,	-0.0225916144,	-1.4693936320
1032,	-2.2500000000,	-0.0057979019,	-1.4715319619
1033,	-2.0000000000,	-0.0008297893,	-1.4721645476
1034,	-1.7500000000,	-0.0057979019,	-1.4715319619
1035,	-1.5000000000,	-0.0225916144,	-1.4693936320
1036,	-1.2500000000,	-0.0655090566,	-1.4639289888
1037,	-2.7500000000,	-0.1000288788,	-1.4595336077
1038,	-2.5000000000,	-0.1000288788,	-1.4595336077
1039,	-2.2500000000,	-0.1000288788,	-1.4595336077
1040,	-2.0000000000,	-0.1000288788,	-1.4595336077
1041,	-1.7500000000,	-0.1000288788,	-1.4595336077
1042,	-1.5000000000,	-0.1000288788,	-1.4595336077
1043,	-1.2500000000,	-0.1000288788,	-1.4595336077
1044,	-2.7500000000,	-0.1345487010,	-1.4551382266
1045,	-2.5000000000,	-0.1774661432,	-1.4496735833
1046,	-2.2500000000,	-0.1942598556,	-1.4475352535
1047,	-2.0000000000,	-0.1992279683,	-1.4469026677
1048,	-1.7500000000,	-0.1942598556,	-1.4475352535
1049,	-1.5000000000,	-0.1774661432,	-1.4496735833
1050,	-1.2500000000,	-0.1345487010,	-1.4551382266
1051,	-2.7500000000,	-0.0325988895,	-1.2658678647
1052,	-2.5000000000,	0.0098777153,	-1.2740841422
1053,	-2.2500000000,	0.0264989269,	-1.2772991941
1054,	-2.0000000000,	0.0314160083,	-1.2782503084
1055,	-1.7500000000,	0.0264989269,	-1.2772991941
1056,	-1.5000000000,	0.0098777153,	-1.2740841422
1057,	-1.2500000000,	-0.0325988895,	-1.2658678647
1058,	-2.7500000000,	-0.0667641326,	-1.2592592593
1059,	-2.5000000000,	-0.0667641326,	-1.2592592593
1060,	-2.2500000000,	-0.0667641326,	-1.2592592593
1061,	-2.0000000000,	-0.0667641326,	-1.2592592593
1062,	-1.7500000000,	-0.0667641326,	-1.2592592593
1063,	-1.5000000000,	-0.0667641326,	-1.2592592593
1064,	-1.2500000000,	-0.0667641326,	-1.2592592593
1065,	-2.7500000000,	-0.1009293756,	-1.2526506538
1066,	-2.5000000000,	-0.1434059804,	-1.2444343763
1067,	-2.2500000000,	-0.1600271920,	-1.2412193244
1068,	-2.0000000000,	-0.1649442734,	-1.2402682101
1069,	-1.7500000000,	-0.1600271920,	-1.2412193244
1070,	-1.5000000000,	-0.1434059804,	-1.2444343763
1071,	-1.2500000000,	-0.1009293756,	-1.2526506538
1072,	-2.7500000000,	0.0065415994,	-1.0916691514
1073,	-2.5000000000,	0.0486488328,	-1.1016064584
1074,	-2.2500000000,	0.0651255082,	-1.1054949539
1075,	-2.0000000000,	0.0699998313,	-1.1066452941
1076,	-1.7500000000,	0.0651255082,	-1.1054949539
1077,	-1.5000000000,	0.0486488328,	-1.1016064584
1078,	-1.2500000000,	0.0065415994,	-1.0916691514
1079,	-2.7500000000,	-0.0273265468,	-1.0836762689
1080,	-2.5000000000,	-0.0273265468,	-1.0836762689
1081,	-2.2500000000,	-0.0273265468,	-1.0836762689
1082,	-2.0000000000,	-0.0273265468,	-1.0836762689
1083,	-1.7500000000,	-0.0273265468,	-1.0836762689
1084,	-1.5000000000,	-0.0273265468,	-1.0836762689
1085,	-1.2500000000,	-0.0273265468,	-1.0836762689
1086,	-2.7500000000,	-0.0611946931,	-1.0756833864
1087,	-2.5000000000,	-0.1033019264,	-1.0657460793
1088,	-2.2500000000,	-0.1197786019,	-1.0618575839
1089,	-2.0000000000,	-0.1246529249,	-1.0607072436
1090,	-1.7500000000,	-0.1197786019,	-1.0618575839
1091,	-1.5000000000,	-0.1033019264,	-1.0657460793
1092,	-1.2500000000,	-0.0611946931,	-1.0756833864
1093,	-2.7500000000,	0.0480367983,	-0.9243166136
1094,	-2.5000000000,	0.0901440317,	-0.9342539207
1095,	-2.2500000000,	0.1066207071,	-0.9381424161
1096,	-2.0000000000,	0.1114950302,	-0.9392927564
1097,	-1.7500000000,	0.1066207071,	-0.9381424161
1098,	-1.5000000000,	0.0901440317,	-0.9342539207
1099,	-1.2500000000,	0.0480367983,	-0.9243166136
1100,	-2.7500000000,	0.0141686521,	-0.9163237311
1101,	-2.5000000000,	0.0141686521,	-0.9163237311
1102,	-2.2500000000,	0.0141686521,	-0.9163237311
1103,	-2.0000000000,	0.0141686521,	-0.9163237311
1104,	-1.7500000000,	0.0141686521,	-0.9163237311
1105,	-1.5000000000,	0.0141686521,	-0.9163237311
1106,	-1.2500000000,	0.0141686521,	-0.9163237311
1107,	-2.7500000000,	-0.0196994941,	-0.9083308486
1108,	-2.5000000000,	-0.0618067275,	-0.8983935416
1109,	-2.2500000000,	-0.0782834030,	-0.8945050461
1110,	-2.0000000000,	-0.0831577260,	-0.8933547059
1111,	-1.7500000000,	-0.0782834030,	-0.8945050461
1112,	-1.5000000000,	-0.0618067275,	-0.8983935416
1113,	-1.2500000000,	-0.0196994941,	-0.9083308486
1114,	-2.7500000000,	0.0877714809,	-0.7473493462
1115,	-2.5000000000,	0.1302480857,	-0.7555656237
1116,	-2.2500000000,	0.1468692972,	-0.7587806756
1117,	-2.0000000000,	0.1517863786,	-0.7597317899
1118,	-1.7500000000,	0.1468692972,	-0.7587806756
1119,	-1.5000000000,	0.1302480857,	-0.7555656237
1120,	-1.2500000000,	0.0877714809,	-0.7473493462
1121,	-2.7500000000,	0.0536062378,	-0.7407407407
1122,	-2.5000000000,	0.0536062378,	-0.7407407407
1123,	-2.2500000000,	0.0536062378,	-0.7407407407
1124,	-2.0000000000,	0.0536062378,	-0.7407407407
1125,	-1.7500000000,	0.0536062378,	-0.7407407407
1126,	-1.5000000000,	0.0536062378,	-0.7407407407
1127,	-1.2500000000,	0.0536062378,	-0.7407407407
1128,	-2.7500000000,	0.0194409947,	-0.7341321353
1129,	-2.5000000000,	-0.0230356101,	-0.7259158578
1130,	-2.2500000000,	-0.0396568216,	-0.7227008059
1131,	-2.0000000000,	-0.0445739030,	-0.7217496916
1132,	-1.7500000000,	-0.0396568216,	-0.7227008059
1133,	-1.5000000000,	-0.0230356101,	-0.7259158578
1134,	-1.2500000000,	0.0194409947,	-0.7341321353
1135,	-2.7500000000,	0.1213908062,	-0.5448617734
1136,	-2.5000000000,	0.1643082485,	-0.5503264167
1137,	-2.2500000000,	0.1811019609,	-0.5524647465
1138,	-2.0000000000,	0.1860700735,	-0.5530973323
1139,	-1.7500000000,	0.1811019609,	-0.5524647465
1140,	-1.5000000000,	0.1643082485,	-0.5503264167
1141,	-1.2500000000,	0.1213908062,	-0.5448617734
1142,	-2.7500000000,	0.0868709840,	-0.5404663923
1143,	-2.5000000000,	0.0868709840,	-0.5404663923
1144,	-2.2500000000,	0.0868709840,	-0.5404663923
1145,	-2.0000000000,	0.0868709840,	-0.5404663923
1146,	-1.7500000000,	0.0868709840,	-0.5404663923
1147,	-1.5000000000,	0.0868709840,	-0.5404663923
1148,	-1.2500000000,	0.0868709840,	-0.5404663923
1149,	-2.7500000000,	0.0523511618,	-0.5360710112
1150,	-2.5000000000,	0.0094337196,	-0.5306063680
1151,	-2.2500000000,	-0.0073599928,	-0.5284680381
1152,	-2.0000000000,	-0.0123281054,	-0.5278354524
1153,	-1.7500000000,	-0.0073599928,	-0.5284680381
1154,	-1.5000000000,	0.0094337196,	-0.5306063680
1155,	-1.2500000000,	0.0523511618,	-0.5360710112
1156,	-2.7500000000,	0.1445870511,	-0.3010677143
1157,	-2.5000000000,	0.1877774711,	-0.3035889824
1158,	-2.2500000000,	0.2046780004,	-0.3045755616
1159,	-2.0000000000,	0.2096777129,	-0.3048674229
1160,	-1.7500000000,	0.2046780004,	-0.3045755616
1161,	-1.5000000000,	0.1877774711,	-0.3035889824
1162,	-1.2500000000,	0.1445870511,	-0.3010677143
1163,	-2.7500000000,	0.1098476644,	-0.2990397805
1164,	-2.5000000000,	0.1098476644,	-0.2990397805
1165,	-2.2500000000,	0.1098476644,	-0.2990397805
1166,	-2.0000000000,	0.1098476644,	-0.2990397805
1167,	-1.7500000000,	0.1098476644,	-0.2990397805
1168,	-1.5000000000,	0.1098476644,	-0.2990397805
1169,	-1.2500000000,	0.1098476644,	-0.2990397805
1170,	-2.7500000000,	0.0751082778,	-0.2970118468
1171,	-2.5000000000,	0.0319178578,	-0.2944905786
1172,	-2.2500000000,	0.0150173284,	-0.2935039995
1173,	-2.0000000000,	0.0100176159,	-0.2932121381
1174,	-1.7500000000,	0.0150173284,	-0.2935039995
1175,	-1.5000000000,	0.0319178578,	-0.2944905786
1176,	-1.2500000000,	0.0751082778,	-0.2970118468
1177,	-2.7500000000,	0.1532195799,	-0.0000000000
1178,	-2.5000000000,	0.1964835276,	-0.0000000000
1179,	-2.2500000000,	0.2134128286,	-0.0000000000
1180,	-2.0000000000,	0.2184210526,	-0.0000000000
1181,	-1.7500000000,	0.2134128286,	-0.0000000000
1182,	-1.5000000000,	0.1964835276,	-0.0000000000
1183,	-1.2500000000,	0.1532195799,	-0.0000000000
1184,	-2.7500000000,	0.1184210526,	-0.0000000000
1185,	-2.5000000000,	0.1184210526,	-0.0000000000
1186,	-2.2500000000,	0.1184210526,	-0.0000000000
1187,	-2.0000000000,	0.1184210526,	-0.0000000000
1188,	-1.7500000000,	0.1184210526,	-0.0000000000
1189,	-1.5000000000,	0.1184210526,	-0.0000000000
1190,	-1.2500000000,	0.1184210526,	-0.0000000000
1191,	-2.7500000000,	0.0836225254,	-0.0000000000
1192,	-2.5000000000,	0.0403585777,	-0.0000000000
1193,	-2.2500000000,	0.0234292767,	-0.0000000000
1194,	-2.0000000000,	0.0184210526,	-0.0000000000
1195,	-1.7500000000,	0.0234292767,	-0.0000000000
1196,	-1.5000000000,	0.0403585777,	-0.0000000000
1197,	-1.2500000000,	0.0836225254,	-0.0000000000
1198,	-2.7500000000,	0.1532195799,	-0.0000000000
1199,	-2.5000000000,	0.1964835276,	-0.0000000000
1200,	-2.2500000000,	0.2134128286,	-0.0000000000
1201,	-2.0000000000,	0.2184210526,	-0.0000000000
1202,	-1.7500000000,	0.2134128286,	-0.0000000000
1203,	-1.5000000000,	0.1964835276,	-0.0000000000
1204,	-1.2500000000,	0.1532195799,	-0.0000000000
1205,	-2.7500000000,	0.1184210526,	-0.0000000000
1206,	-2.5000000000,	0.1184210526,	-0.0000000000
1207,	-2.2500000000,	0.1184210526,	-0.0000000000
1208,	-2.0000000000,	0.1184210526,	-0.0000000000
1209,	-1.7500000000,	0.1184210526,	-0.0000000000
1210,	-1.5000000000,	0.1184210526,	-0.0000000000
1211,	-1.2500000000,	0.1184210526,	-0.0000000000
1212,	-2.7500000000,	0.0836225254,	-0.0000000000
1213,	-2.5000000000,	0.0403585777,	-0.0000000000
1214,	-2.2500000000,	0.0234292767,	-0.0000000000
1215,	-2.0000000000,	0.0184210526,	-0.0000000000
1216,	-1.7500000000,	0.0234292767,	-0.0000000000
1217,	-1.5000000000,	0.0403585777,	-0.0000000000
1218,	-1.2500000000,	0.0836225254,	-0.0000000000
1219,	-2.7500000000,	0.1445870511,	0.3010677143
1220,	-2.5000000000,	0.1877774711,	0.3035889824
1221,	-2.2500000000,	0.2046780004,	0.3045755616
1222,	-2.0000000000,	0.2096777129,	0.3048674229
1223,	-1.7500000000,	0.2046780004,	0.3045755616
1224,	-1.5000000000,	0.1877774711,	0.3035889824
1225,	-1.2500000000,	0.1445870511,	0.3010677143
1226,	-2.7500000000,	0.1098476644,	0.2990397805
1227,	-2.5000000000,	0.1098476644,	0.2990397805
1228,	-2.2500000000,	0.1098476644,	0.2990397805
1229,	-2.0000000000,	0.1098476644,	0.2990397805
1230,	-1.7500000000,	0.1098476644,	0.2990397805
1231,	-1.5000000000,	0.1098476644,	0.2990397805
1232,	-1.2500000000,	0.1098476644,	0.2990397805
1233,	-2.7500000000,	0.0751082778,	0.2970118468
1234,	-2.5000000000,	0.0319178578,	0.2944905786
1235,	-2.2500000000,	0.0150173284,	0.2935039995
1236,	-2.0000000000,	0.0100176159,	0.2932121381
1237,	-1.7500000000,	0.0150173284,	0.2935039995
1238,	-1.5000000000,	0.0319178578,	0.2944905786
1239,	-1.2500000000,	0.0751082778,	0.2970118468
1240,	-2.7500000000,	0.1213908062,	0.5448617734
1241,	-2.5000000000,	0.1643082485,	0.5503264167
1242,	-2.2500000000,	0.1811019609,	0.5524647465
1243,	-2.0000000000,	0.1860700735,	0.5530973323
1244,	-1.7500000000,	0.1811019609,	0.5524647465
1245,	-1.5000000000,	0.1643082485,	0.5503264167
1246,	-1.2500000000,	0.1213908062,	0.5448617734
1247,	-2.7500000000,	0.0868709840,	0.5404663923
1248,	-2.5000000000,	0.0868709840,	0.5404663923
1249,	-2.2500000000,	0.0868709840,	0.5404663923
1250,	-2.0000000000,	0.0868709840,	0.5404663923
1251,	-1.7500000000,	0.0868709840,	0.5404663923
1252,	-1.5000000000,	0.0868709840,	0.5404663923
1253,	-1.2500000000,	0.0868709840,	0.5404663923
1254,	-2.7500000000,	0.0523511618,	0.5360710112
1255,	-2.5000000000,	0.0094337196,	0.5306063680
1256,	-2.2500000000,	-0.0073599928,	0.5284680381
1257,	-2.0000000000,	-0.0123281054,	0.5278354524
1258,	-1.7500000000,	-0.0073599928,	0.5284680381
1259,	-1.5000000000,	0.0094337196,	0.5306063680
1260,	-1.2500000000,	0.0523511618,	0.5360710112
1261,	-2.7500000000,	0.0877714809,	0.7473493462
1262,	-2.5000000000,	0.1302480857,	0.7555656237
1263,	-2.2500000000,	0.1468692972,	0.7587806756
1264,	-2.0000000000,	0.1517863786,	0.7597317899
1265,	-1.7500000000,	0.1468692972,	0.7587806756
1266,	-1.5000000000,	0.1302480857,	0.7555656237
1267,	-1.2500000000,	0.0877714809,	0.7473493462
1268,	-2.7500000000,	0.0536062378,	0.7407407407
1269,	-2.5000000000,	0.0536062378,	0.7407407407
1270,	-2.2500000000,	0.0536062378,	0.7407407407
1271,	-2.0000000000,	0.0536062378,	0.7407407407
1272,	-1.7500000000,	0.0536062378,	0.7407407407
1273,	-1.5000000000,	0.0536062378,	0.7407407407
1274,	-1.2500000000,	0.0536062378,	0.7407407407
1275,	-2.7500000000,	0.0194409947,	0.7341321353
1276,	-2.5000000000,	-0.0230356101,	0.7259158578
1277,	-2.2500000000,	-0.0396568216,	0.7227008059
1278,	-2.0000000000,	-0.0445739030,	0.7217496916
1279,	-1.7500000000,	-0.0396568216,	0.7227008059
1280,	-1.5000000000,	-0.0230356101,	0.7259158578
1281,	-1.2500000000,	0.0194409947,	0.7341321353
1282,	-2.7500000000,	0.0480367983,	0.9243166136
1283,	-2.5000000000,	0.0901440317,	0.9342539207
1284,	-2.2500000000,	0.1066207071,	0.9381424161
1285,	-2.0000000000,	0.1114950302,	0.9392927564
1286,	-1.7500000000,	0.1066207071,	0.9381424161
1287,	-1.5000000000,	0.0901440317,	0.9342539207
1288,	-1.2500000000,	0.0480367983,	0.9243166136
1289,	-2.7500000000,	0.0141686521,	0.9163237311
1290,	-2.5000000000,	0.0141686521,	0.9163237311
1291,	-2.2500000000,	0.0141686521,	0.9163237311
1292,	-2.0000000000,	0.0141686521,	0.9163237311
1293,	-1.7500000000,	0.0141686521,	0.9163237311
1294,	-1.5000000000,	0.0141686521,	0.9163237311
1295,	-1.2500000000,	0.0141686521,	0.9163237311
1296,	-2.7500000000,	-0.0196994941,	0.9083308486
1297,	-2.5000000000,	-0.0618067275,	0.8983935416
1298,	-2.2500000000,	-0.0782834030,	0.8945050461
1299,	-2.0000000000,	-0.0831577260,	0.8933547059
1300,	-1.7500000000,	-0.0782834030,	0.8945050461
1301,	-1.5000000000,	-0.0618067275,	0.8983935416
1302,	-1.2500000000,	-0.0196994941,	0.9083308486
1303,	-2.7500000000,	0.0065415994,	1.0916691514
1304,	-2.5000000000,	0.0486488328,	1.1016064584
1305,	-2.2500000000,	0.0651255082,	1.1054949539
1306,	-2.0000000000,	0.0699998313,	1.1066452941
1307,	-1.7500000000,	0.0651255082,	1.1054949539
1308,	-1.5000000000,	0.0486488328,	1.1016064584
1309,	-1.2500000000,	0.0065415994,	1.0916691514
1310,	-2.7500000000,	-0.0273265468,	1.0836762689
1311,	-2.5000000000,	-0.0273265468,	1.0836762689
1312,	-2.2500000000,	-0.0273265468,	1.0836762689
1313,	-2.0000000000,	-0.0273265468,	1.0836762689
1314,	-1.7500000000,	-0.0273265468,	1.0836762689
1315,	-1.5000000000,	-0.0273265468,	1.0836762689
1316,	-1.2500000000,	-0.0273265468,	1.0836762689
1317,	-2.7500000000,	-0.0611946931,	1.0756833864
1318,	-2.5000000000,	-0.1033019264,	1.0657460793
1319,	-2.2500000000,	-0.1197786019,	1.0618575839
1320,	-2.0000000000,	-0.1246529249,	1.0607072436
1321,	-1.7500000000,	-0.1197786019,	1.0618575839
1322,	-1.5000000000,	-0.1033019264,	1.0657460793
1323,	-1.2500000000,	-0.0611946931,	1.0756833864
1324,	-2.7500000000,	-0.0325988895,	1.2658678647
1325,	-2.5000000000,	0.0098777153,	1.2740841422
1326,	-2.2500000000,	0.0264989269,	1.2772991941
1327,	-2.0000000000,	0.0314160083,	1.2782503084
1328,	-1.7500000000,	0.0264989269,	1.2772991941
1329,	-1.5000000000,	0.0098777153,	1.2740841422
1330,	-1.2500000000,	-0.0325988895,	1.2658678647
1331,	-2.7500000000,	-0.0667641326,	1.2592592593
1332,	-2.5000000000,	-0.0667641326,	1.2592592593
1333,	-2.2500000000,	-0.0667641326,	1.2592592593
1334,	-2.0000000000,	-0.0667641326,	1.2592592593
1335,	-1.7500000000,	-0.0667641326,	1.2592592593
1336,	-1.5000000000,	-0.0667641326,	1.2592592593
1337,	-1.2500000000,	-0.0667641326,	1.2592592593
1338,	-2.7500000000,	-0.1009293756,	1.2526506538
1339,	-2.5000000000,	-0.1434059804,	1.2444343763
1340,	-2.2500000000,	-0.1600271920,	1.2412193244
1341,	-2.0000000000,	-0.1649442734,	1.2402682101
1342,	-1.7500000000,	-0.1600271920,	1.2412193244
1343,	-1.5000000000,	-0.1434059804,	1.2444343763
1344,	-1.2500000000,	-0.1009293756,	1.2526506538
1345,	-2.7500000000,	-0.0655090566,	1.4639289888
1346,	-2.5000000000,	-0.0225916144,	1.4693936320
1347,	-2.2500000000,	-0.0057979019,	1.4715319619
1348,	-2.0000000000,	-0.0008297893,	1.4721645476
1349,	-1.7500000000,	-0.0057979019,	1.4715319619
1350,	-1.5000000000,	-0.0225916144,	1.4693936320
1351,	-1.2500000000,	-0.0655090566,	1.4639289888
1352,	-2.7500000000,	-0.1000288788,	1.4595336077
1353,	-2.5000000000,	-0.1000288788,	1.4595336077
1354,	-2.2500000000,	-0.1000288788,	1.4595336077
1355,	-2.0000000000,	-0.1000288788,	1.4595336077
1356,	-1.7500000000,	-0.1000288788,	1.4595336077
1357,	-1.5000000000,	-0.1000288788,	1.4595336077
1358,	-1.2500000000,	-0.1000288788,	1.4595336077
1359,	-2.7500000000,	-0.1345487010,	1.4551382266
1360,	-2.5000000000,	-0.1774661432,	1.4496735833
1361,	-2.2500000000,	-0.1942598556,	1.4475352535
1362,	-2.0000000000,	-0.1992279683,	1.4469026677
1363,	-1.7500000000,	-0.1942598556,	1.4475352535
1364,	-1.5000000000,	-0.1774661432,	1.4496735833
1365,	-1.2500000000,	-0.1345487010,	1.4551382266
1366,	-2.7500000000,	-0.0882661725,	1.7029881532
1367,	-2.5000000000,	-0.0450757525,	1.7055094214
1368,	-2.2500000000,	-0.0281752232,	1.7064960005
1369,	-2.0000000000,	-0.0231755107,	1.7067878619
1370,	-1.7500000000,	-0.0281752232,	1.7064960005
1371,	-1.5000000000,	-0.0450757525,	1.7055094214
1372,	-1.2500000000,	-0.0882661725,	1.7029881532
1373,	-2.7500000000,	-0.1230055592,	1.7009602195
1374,	-2.5000000000,	-0.1230055592,	1.7009602195
1375,	-2.2500000000,	-0.1230055592,	1.7009602195
1376,	-2.0000000000,	-0.1230055592,	1.7009602195
1377,	-1.7500000000,	-0.1230055592,	1.7009602195
1378,	-1.5000000000,	-0.1230055592,	1.7009602195
1379,	-1.2500000000,	-0.1230055592,	1.7009602195
1380,	-2.7500000000,	-0.1577449458,	1.6989322857
1381,	-2.5000000000,	-0.2009353658,	1.6964110176
1382,	-2.2500000000,	-0.2178358952,	1.6954244384
1383,	-2.0000000000,	-0.2228356077,	1.6951325771
1384,	-1.7500000000,	-0.2178358952,	1.6954244384
1385,	-1.5000000000,	-0.2009353658,	1.6964110176
1386,	-1.2500000000,	-0.1577449458,	1.6989322857
1387,	-2.7500000000,	-0.0967804201,	2.0000000000
1388,	-2.5000000000,	-0.0535164724,	2.0000000000
1389,	-2.2500000000,	-0.0365871714,	2.0000000000
1390,	-2.0000000000,	-0.0315789474,	2.0000000000
1391,	-1.7500000000,	-0.0365871714,	2.0000000000
1392,	-1.5000000000,	-0.0535164724,	2.0000000000
1393,	-1.2500000000,	-0.0967804201,	2.0000000000
1394,	-2.7500000000,	-0.1315789474,	2.0000000000
1395,	-2.5000000000,	-0.1315789474,	2.0000000000
1396,	-2.2500000000,	-0.1315789474,	2.0000000000
1397,	-2.0000000000,	-0.1315789474,	2.0000000000
1398,	-1.7500000000,	-0.1315789474,	2.0000000000
1399,	-1.5000000000,	-0.1315789474,	2.0000000000
1400,	-1.2500000000,	-0.1315789474,	2.0000000000
1401,	-2.7500000000,	-0.1663774746,	2.0000000000
1402,	-2.5000000000,	-0.2096414223,	2.0000000000
1403,	-2.2500000000,	-0.2265707233,	2.0000000000
1404,	-2.0000000000,	-0.2315789474,	2.0000000000
1405,	-1.7500000000,	-0.2265707233,	2.0000000000
1406,	-1.5000000000,	-0.2096414223,	2.0000000000
1407,	-1.2500000000,	-0.1663774746,	2.0000000000
1408,	-2.7500000000,	-0.0882661725,	2.2970118468
1409,	-2.5000000000,	-0.0450757525,	2.2944905786
1410,	-2.2500000000,	-0.0281752232,	2.2935039995
1411,	-2.0000000000,	-0.0231755107,	2.2932121381
1412,	-1.7500000000,	-0.0281752232,	2.2935039995
1413,	-1.5000000000,	-0.0450757525,	2.2944905786
1414,	-1.2500000000,	-0.0882661725,	2.2970118468
1415,	-2.7500000000,	-0.1230055592,	2.2990397805
1416,	-2.5000000000,	-0.1230055592,	2.2990397805
1417,	-2.2500000000,	-0.1230055592,	2.2990397805
1418,	-2.0000000000,	-0.1230055592,	2.2990397805
1419,	-1.7500000000,	-0.1230055592,	2.2990397805
1420,	-1.5000000000,	-0.1230055592,	2.2990397805
1421,	-1.2500000000,	-0.1230055592,	2.2990397805
1422,	-2.7500000000,	-0.1577449458,	2.3010677143
1423,	-2.5000000000,	-0.2009353658,	2.3035889824
1424,	-2.2500000000,	-0.2178358952,	2.3045755616
1425,	-2.0000000000,	-0.2228356077,	2.3048674229
1426,	-1.7500000000,	-0.2178358952,	2.3045755616
1427,	-1.5000000000,	-0.2009353658,	2.3035889824
1428,	-1.2500000000,	-0.1577449458,	2.3010677143
1429,	-2.7500000000,	-0.0655090566,	2.5360710112
1430,	-2.5000000000,	-0.0225916144,	2.5306063680
1431,	-2.2500000000,	-0.0057979019,	2.5284680381
1432,	-2.0000000000,	-0.0008297893,	2.5278354524
1433,	-1.7500000000,	-0.0057979019,	2.5284680381
1434,	-1.5000000000,	-0.0225916144,	2.5306063680
1435,	-1.2500000000,	-0.0655090566,	2.5360710112
1436,	-2.7500000000,	-0.1000288788,	2.5404663923
1437,	-2.5000000000,	-0.1000288788,	2.5404663923
1438,	-2.2500000000,	-0.1000288788,	2.5404663923
1439,	-2.0000000000,	-0.1000288788,	2.5404663923
1440,	-1.7500000000,	-0.1000288788,	2.5404663923
1441,	-1.5000000000,	-0.1000288788,	2.5404663923
1442,	-1.2500000000,	-0.1000288788,	2.5404663923
1443,	-2.7500000000,	-0.1345487010,	2.5448617734
1444,	-2.5000000000,	-0.1774661432,	2.5503264167
1445,	-2.2500000000,	-0.1942598556,	2.5524647465
1446,	-2.0000000000,	-0.1992279683,	2.5530973323
1447,	-1.7500000000,	-0.1942598556,	2.5524647465
1448,	-1.5000000000,	-0.1774661432,	2.5503264167
1449,	-1.2500000000,	-0.1345487010,	2.5448617734
1450,	-2.7500000000,	-0.0325988895,	2.7341321353
1451,	-2.5000000000,	0.0098777153,	2.7259158578
1452,	-2.2500000000,	0.0264989269,	2.7227008059
1453,	-2.0000000000,	0.0314160083,	2.7217496916
1454,	-1.7500000000,	0.0264989269,	2.7227008059
1455,	-1.5000000000,	0.0098777153,	2.7259158578
1456,	-1.2500000000,	-0.0325988895,	2.7341321353
1457,	-2.7500000000,	-0.0667641326,	2.7407407407
1458,	-2.5000000000,	-0.0667641326,	2.7407407407
1459,	-2.2500000000,	-0.0667641326,	2.7407407407
1460,	-2.0000000000,	-0.0667641326,	2.7407407407
1461,	-1.7500000000,	-0.0667641326,	2.7407407407
1462,	-1.5000000000,	-0.0667641326,	2.7407407407
1463,	-1.2500000000,	-0.0667641326,	2.7407407407
1464,	-2.7500000000,	-0.1009293756,	2.7473493462
1465,	-2.5000000000,	-0.1434059804,	2.7555656237
1466,	-2.2500000000,	-0.1600271920,	2.7587806756
1467,	-2.0000000000,	-0.1649442734,	2.7597317899
1468,	-1.7500000000,	-0.1600271920,	2.7587806756
1469,	-1.5000000000,	-0.1434059804,	2.7555656237
1470,	-1.2500000000,	-0.1009293756,	2.7473493462
1471,	-2.7500000000,	0.0065415994,	2.9083308486
1472,	-2.5000000000,	0.0486488328,	2.8983935416
1473,	-2.2500000000,	0.0651255082,	2.8945050461
1474,	-2.0000000000,	0.0699998313,	2.8933547059
1475,	-1.7500000000,	0.0651255082,	2.8945050461
1476,	-1.5000000000,	0.0486488328,	2.8983935416
1477,	-1.2500000000,	0.0065415994,	2.9083308486
1478,	-2.7500000000,	-0.0273265468,	2.9163237311
1479,	-2.5000000000,	-0.0273265468,	2.9163237311
1480,	-2.2500000000,	-0.0273265468,	2.9163237311
1481,	-2.0000000000,	-0.0273265468,	2.9163237311
1482,	-1.7500000000,	-0.0273265468,	2.9163237311
1483,	-1.5000000000,	-0.0273265468,	2.9163237311
1484,	-1.2500000000,	-0.0273265468,	2.9163237311
1485,	-2.7500000000,	-0.0611946931,	2.9243166136
1486,	-2.5000000000,	-0.1033019264,	2.9342539207
1487,	-2.2500000000,	-0.1197786019,	2.9381424161
1488,	-2.0000000000,	-0.1246529249,	2.9392927564
1489,	-1.7500000000,	-0.1197786019,	2.9381424161
1490,	-1.5000000000,	-0.1033019264,	2.9342539207
1491,	-1.2500000000,	-0.0611946931,	2.9243166136
1492,	-2.7500000000,	0.0480367983,	3.0756833864
1493,	-2.5000000000,	0.0901440317,	3.0657460793
1494,	-2.2500000000,	0.1066207071,	3.0618575839
1495,	-2.0000000000,	0.1114950302,	3.0607072436
1496,	-1.7500000000,	0.1066207071,	3.0618575839
1497,	-1.5000000000,	0.0901440317,	3.0657460793
1498,	-1.2500000000,	0.0480367983,	3.0756833864
1499,	-2.7500000000,	0.0141686521,	3.0836762689
1500,	-2.5000000000,	0.0141686521,	3.0836762689
1501,	-2.2500000000,	0.0141686521,	3.0836762689
1502,	-2.0000000000,	0.0141686521,	3.0836762689
1503,	-1.7500000000,	0.0141686521,	3.0836762689
1504,	-1.5000000000,	0.0141686521,	3.0836762689
1505,	-1.2500000000,	0.0141686521,	3.0836762689
1506,	-2.7500000000,	-0.0196994941,	3.0916691514
1507,	-2.5000000000,	-0.0618067275,	3.1016064584
1508,	-2.2500000000,	-0.0782834030,	3.1054949539
1509,	-2.0000000000,	-0.0831577260,	3.1066452941
1510,	-1.7500000000,	-0.0782834030,	3.1054949539
1511,	-1.5000000000,	-0.0618067275,	3.1016064584
1512,	-1.2500000000,	-0.0196994941,	3.0916691514
1513,	-2.7500000000,	0.0877714809,	3.2526506538
1514,	-2.5000000000,	0.1302480857,	3.2444343763
1515,	-2.2500000000,	0.1468692972,	3.2412193244
1516,	-2.0000000000,	0.1517863786,	3.2402682101
1517,	-1.7500000000,	0.1468692972,	3.2412193244
1518,	-1.5000000000,	0.1302480857,	3.2444343763
1519,	-1.2500000000,	0.0877714809,	3.2526506538
1520,	-2.7500000000,	0.0536062378,	3.2592592593
1521,	-2.5000000000,	0.0536062378,	3.2592592593
1522,	-2.2500000000,	0.0536062378,	3.2592592593
1523,	-2.0000000000,	0.0536062378,	3.2592592593
1524,	-1.7500000000,	0.0536062378,	3.2592592593
1525,	-1.5000000000,	0.0536062378,	3.2592592593
1526,	-1.2500000000,	0.0536062378,	3.2592592593
1527,	-2.7500000000,	0.0194409947,	3.2658678647
1528,	-2.5000000000,	-0.0230356101,	3.2740841422
1529,	-2.2500000000,	-0.0396568216,	3.2772991941
1530,	-2.0000000000,	-0.0445739030,	3.2782503084
1531,	-1.7500000000,	-0.0396568216,	3.2772991941
1532,	-1.5000000000,	-0.0230356101,	3.2740841422
1533,	-1.2500000000,	0.0194409947,	3.2658678647
1534,	-2.7500000000,	0.1213908062,	3.4551382266
1535,	-2.5000000000,	0.1643082485,	3.4496735833
1536,	-2.2500000000,	0.1811019609,	3.4475352535
1537,	-2.0000000000,	0.1860700735,	3.4469026677
1538,	-1.7500000000,	0.1811019609,	3.4475352535
1539,	-1.5000000000,	0.1643082485,	3.4496735833
1540,	-1.2500000000,	0.1213908062,	3.4551382266
1541,	-2.7500000000,	0.0868709840,	3.4595336077
1542,	-2.5000000000,	0.0868709840,	3.4595336077
1543,	-2.2500000000,	0.0868709840,	3.4595336077
1544,	-2.0000000000,	0.0868709840,	3.4595336077
1545,	-1.7500000000,	0.0868709840,	3.4595336077
1546,	-1.5000000000,	0.0868709840,	3.4595336077
1547,	-1.2500000000,	0.0868709840,	3.4595336077
1548,	-2.7500000000,	0.0523511618,	3.4639289888
1549,	-2.5000000000,	0.0094337196,	3.4693936320
1550,	-2.2500000000,	-0.0073599928,	3.4715319619
1551,	-2.0000000000,	-0.0123281054,	3.4721645476
1552,	-1.7500000000,	-0.0073599928,	3.4715319619
1553,	-1.5000000000,	0.0094337196,	3.4693936320
1554,	-1.2500000000,	0.0523511618,	3.4639289888
1555,	-2.7500000000,	0.1445870511,	3.6989322857
1556,	-2.5000000000,	0.1877774711,	3.6964110176
1557,	-2.2500000000,	0.2046780004,	3.6954244384
1558,	-2.0000000000,	0.2096777129,	3.6951325771
1559,	-1.7500000000,	0.2046780004,	3.6954244384
1560,	-1.5000000000,	0.1877774711,	3.6964110176
1561,	-1.2500000000,	0.1445870511,	3.6989322857
1562,	-2.7500000000,	0.1098476644,	3.7009602195
1563,	-2.5000000000,	0.1098476644,	3.7009602195
1564,	-2.2500000000,	0.1098476644,	3.7009602195
1565,	-2.0000000000,	0.1098476644,	3.7009602195
1566,	-1.7500000000,	0.1098476644,	3.7009602195
1567,	-1.5000000000,	0.1098476644,	3.7009602195
1568,	-1.2500000000,	0.1098476644,	3.7009602195
1569,	-2.7500000000,	0.0751082778,	3.7029881532
1570,	-2.5000000000,	0.0319178578,	3.7055094214
1571,	-2.2500000000,	0.0150173284,	3.7064960005
1572,	-2.0000000000,	0.0100176159,	3.7067878619
1573,	-1.7500000000,	0.0150173284,	3.7064960005
1574,	-1.5000000000,	0.0319178578,	3.7055094214
1575,	-1.2500000000,	0.0751082778,	3.7029881532
1576,	-2.7500000000,	0.1532195799,	4.0000000000
1577,	-2.5000000000,	0.1964835276,	4.0000000000
1578,	-2.2500000000,	0.2134128286,	4.0000000000
1579,	-2.0000000000,	0.2184210526,	4.0000000000
1580,	-1.7500000000,	0.2134128286,	4.0000000000
1581,	-1.5000000000,	0.1964835276,	4.0000000000
1582,	-1.2500000000,	0.1532195799,	4.0000000000
1583,	-2.7500000000,	0.1184210526,	4.0000000000
1584,	-2.5000000000,	0.1184210526,	4.0000000000
1585,	-2.2500000000,	0.1184210526,	4.0000000000
1586,	-2.0000000000,	0.1184210526,	4.0000000000
1587,	-1.7500000000,	0.1184210526,	4.0000000000
1588,	-1.5000000000,	0.1184210526,	4.0000000000
1589,	-1.2500000000,	0.1184210526,	4.0000000000
1590,	-2.7500000000,	0.0836225254,	4.0000000000
1591,	-2.5000000000,	0.0403585777,	4.0000000000
1592,	-2.2500000000,	0.0234292767,	4.0000000000
1593,	-2.0000000000,	0.0184210526,	4.0000000000
1594,	-1.7500000000,	0.0234292767,	4.0000000000
1595,	-1.5000000000,	0.0403585777,	4.0000000000
1596,	-1.2500000000,	0.0836225254,	4.0000000000
1597,	-0.7500000000,	-0.0836225254,	-4.0000000000
1598,	-0.5000000000,	-0.0403585777,	-4.0000000000
1599,	-0.2500000000,	-0.0234292767,	-4.0000000000
1600,	-0.0000000000,	-0.0184210526,	-4.0000000000
1601,	0.2500000000,	-0.0234292767,	-4.0000000000
1602,	0.5000000000,	-0.0403585777,	-4.0000000000
1603,	0.7500000000,	-0.0836225254,	-4.0000000000
1604,	-0.7500000000,	-0.1184210526,	-4.0000000000
1605,	-0.5000000000,	-0.1184210526,	-4.0000000000
1606,	-0.2500000000,	-0.1184210526,	-4.0000000000
1607,	-0.0000000000,	-0.1184210526,	-4.0000000000
1608,	0.2500000000,	-0.1184210526,	-4.0000000000
1609,	0.5000000000,	-0.1184210526,	-4.0000000000
1610,	0.7500000000,	-0.1184210526,	-4.0000000000
1611,	-0.7500000000,	-0.1532195799,	-4.0000000000
1612,	-0.5000000000,	-0.1964835276,	-4.0000000000
1613,	-0.2500000000,	-0.2134128286,	-4.0000000000
1614,	-0.0000000000,	-0.2184210526,	-4.0000000000
1615,	0.2500000000,	-0.2134128286,	-4.0000000000
1616,	0.5000000000,	-0.1964835276,	-4.0000000000
1617,	0.7500000000,	-0.1532195799,	-4.0000000000
1618,	-0.7500000000,	-0.0751082778,	-3.7029881532
1619,	-0.5000000000,	-0.0319178578,	-3.7055094214
1620,	-0.2500000000,	-0.0150173284,	-3.7064960005
1621,	-0.0000000000,	-0.0100176159,	-3.7067878619
1622,	0.2500000000,	-0.0150173284,	-3.7064960005
1623,	0.5000000000,	-0.0319178578,	-3.7055094214
1624,	0.7500000000,	-0.0751082778,	-3.7029881532
1625,	-0.7500000000,	-0.1098476644,	-3.7009602195
1626,	-0.5000000000,	-0.1098476644,	-3.7009602195
1627,	-0.2500000000,	-0.1098476644,	-3.7009602195
1628,	-0.0000000000,	-0.1098476644,	-3.7009602195
1629,	0.2500000000,	-0.1098476644,	-3.7009602195
1630,	0.5000000000,	-0.1098476644,	-3.7009602195
1631,	0.7500000000,	-0.1098476644,	-3.7009602195
1632,	-0.7500000000,	-0.1445870511,	-3.6989322857
1633,	-0.5000000000,	-0.1877774711,	-3.6964110176
1634,	-0.2500000000,	-0.2046780004,	-3.6954244384
1635,	-0.0000000000,	-0.2096777129,	-3.6951325771
1636,	0.2500000000,	-0.2046780004,	-3.6954244384
1637,	0.5000000000,	-0.1877774711,	-3.6964110176
1638,	0.7500000000,	-0.1445870511,	-3.6989322857
1639,	-0.7500000000,	-0.0523511618,	-3.4639289888
1640,	-0.5000000000,	-0.0094337196,	-3.4693936320
1641,	-0.2500000000,	0.0073599928,	-3.4715319619
1642,	-0.0000000000,	0.0123281054,	-3.4721645476
1643,	0.2500000000,	0.0073599928,	-3.4715319619
1644,	0.5000000000,	-0.0094337196,	-3.4693936320
1645,	0.7500000000,	-0.0523511618,	-3.4639289888
1646,	-0.7500000000,	-0.0868709840,	-3.4595336077
1647,	-0.5000000000,	-0.0868709840,	-3.4595336077
1648,	-0.2500000000,	-0.0868709840,	-3.4595336077
1649,	-0.0000000000,	-0.0868709840,	-3.4595336077
1650,	0.2500000000,	-0.0868709840,	-3.4595336077
1651,	0.5000000000,	-0.0868709840,	-3.4595336077
1652,	0.7500000000,	-0.0868709840,	-3.4595336077
1653,	-0.7500000000,	-0.1213908062,	-3.4551382266
1654,	-0.5000000000,	-0.1643082485,	-3.4496735833
1655,	-0.2500000000,	-0.1811019609,	-3.4475352535
1656,	-0.0000000000,	-0.1860700735,	-3.4469026677
1657,	0.2500000000,	-0.1811019609,	-3.4475352535
1658,	0.5000000000,	-0.1643082485,	-3.4496735833
1659,	0.7500000000,	-0.1213908062,	-3.4551382266
1660,	-0.7500000000,	-0.0194409947,	-3.2658678647
1661,	-0.5000000000,	0.0230356101,	-3.2740841422
1662,	-0.2500000000,	0.0396568216,	-3.2772991941
1663,	-0.0000000000,	0.0445739030,	-3.2782503084
1664,	0.2500000000,	0.0396568216,	-3.2772991941
1665,	0.5000000000,	0.0230356101,	-3.2740841422
1666,	0.7500000000,	-0.0194409947,	-3.2658678647
1667,	-0.7500000000,	-0.0536062378,	-3.2592592593
1668,	-0.5000000000,	-0.0536062378,	-3.2592592593
1669,	-0.2500000000,	-0.0536062378,	-3.2592592593
1670,	-0.0000000000,	-0.0536062378,	-3.2592592593
1671,	0.2500000000,	-0.0536062378,	-3.2592592593
1672,	0.5000000000,	-0.0536062378,	-3.2592592593
1673,	0.7500000000,	-0.0536062378,	-3.2592592593
1674,	-0.7500000000,	-0.0877714809,	-3.2526506538
1675,	-0.5000000000,	-0.1302480857,	-3.2444343763
1676,	-0.2500000000,	-0.1468692972,	-3.2412193244
1677,	-0.0000000000,	-0.1517863786,	-3.2402682101
1678,	0.2500000000,	-0.1468692972,	-3.2412193244
1679,	0.5000000000,	-0.1302480857,	-3.2444343763
1680,	0.7500000000,	-0.0877714809,	-3.2526506538
1681,	-0.7500000000,	0.0196994941,	-3.0916691514
1682,	-0.5000000000,	0.0618067275,	-3.1016064584
1683,	-0.2500000000,	0.0782834030,	-3.1054949539
1684,	-0.0000000000,	0.0831577260,	-3.1066452941
1685,	0.2500000000,	0.0782834030,	-3.1054949539
1686,	0.5000000000,	0.0618067275,	-3.1016064584
1687,	0.7500000000,	0.0196994941,	-3.0916691514
1688,	-0.7500000000,	-0.0141686521,	-3.0836762689
1689,	-0.5000000000,	-0.0141686521,	-3.0836762689
1690,	-0.2500000000,	-0.0141686521,	-3.0836762689
1691,	-0.0000000000,	-0.0141686521,	-3.0836762689
1692,	0.2500000000,	-0.0141686521,	-3.0836762689
1693,	0.5000000000,	-0.0141686521,	-3.0836762689
1694,	0.7500000000,	-0.0141686521,	-3.0836762689
1695,	-0.7500000000,	-0.0480367983,	-3.0756833864
1696,	-0.5000000000,	-0.0901440317,	-3.0657460793
1697,	-0.2500000000,	-0.1066207071,	-3.0618575839
1698,	-0.0000000000,	-0.1114950302,	-3.0607072436
1699,	0.2500000000,	-0.1066207071,	-3.0618575839
1700,	0.5000000000,	-0.0901440317,	-3.0657460793
1701,	0.7500000000,	-0.0480367983,	-3.0756833864
1702,	-0.7500000000,	0.0611946931,	-2.9243166136
1703,	-0.5000000000,	0.1033019264,	-2.9342539207
1704,	-0.2500000000,	0.1197786019,	-2.9381424161
1705,	-0.0000000000,	0.1246529249,	-2.9392927564
1706,	0.2500000000,	0.1197786019,	-2.9381424161
1707,	0.5000000000,	0.1033019264,	-2.9342539207
1708,	0.7500000000,	0.0611946931,	-2.9243166136
1709,	-0.7500000000,	0.0273265468,	-2.9163237311
1710,	-0.5000000000,	0.0273265468,	-2.9163237311
1711,	-0.2500000000,	0.0273265468,	-2.9163237311
1712,	-0.0000000000,	0.0273265468,	-2.9163237311
1713,	0.2500000000,	0.0273265468,	-2.9163237311
1714,	0.5000000000,	0.0273265468,	-2.9163237311
1715,	0.7500000000,	0.0273265468,	-2.9163237311
1716,	-0.7500000000,	-0.0065415994,	-2.9083308486
1717,	-0.5000000000,	-0.0486488328,	-2.8983935416
1718,	-0.2500000000,	-0.0651255082,	-2.8945050461
1719,	-0.0000000000,	-0.0699998313,	-2.8933547059
1720,	0.2500000000,	-0.0651255082,	-2.8945050461
1721,	0.5000000000,	-0.0486488328,	-2.8983935416
1722,	0.7500000000,	-0.0065415994,	-2.9083308486
1723,	-0.7500000000,	0.1009293756,	-2.7473493462
1724,	-0.5000000000,	0.1434059804,	-2.7555656237
1725,	-0.2500000000,	0.1600271920,	-2.7587806756
1726,	-0.0000000000,	0.1649442734,	-2.7597317899
1727,	0.2500000000,	0.1600271920,	-2.7587806756
1728,	0.5000000000,	0.1434059804,	-2.7555656237
1729,	0.7500000000,	0.1009293756,	-2.7473493462
1730,	-0.7500000000,	0.0667641326,	-2.7407407407
1731,	-0.5000000000,	0.0667641326,	-2.7407407407
1732,	-0.2500000000,	0.0667641326,	-2.7407407407
1733,	-0.0000000000,	0.0667641326,	-2.7407407407
1734,	0.2500000000,	0.0667641326,	-2.7407407407
1735,	0.5000000000,	0.0667641326,	-2.7407407407
1736,	0.7500000000,	0.0667641326,	-2.7407407407
1737,	-0.7500000000,	0.0325988895,	-2.7341321353
1738,	-0.5000000000,	-0.0098777153,	-2.7259158578
1739,	-0.2500000000,	-0.0264989269,	-2.7227008059
1740,	-0.0000000000,	-0.0314160083,	-2.7217496916
1741,	0.2500000000,	-0.0264989269,	-2.7227008059
1742,	0.5000000000,	-0.0098777153,	-2.7259158578
1743,	0.7500000000,	0.0325988895,	-2.7341321353
1744,	-0.7500000000,	0.1345487010,	-2.5448617734
1745,	-0.5000000000,	0.1774661432,	-2.5503264167
1746,	-0.2500000000,	0.1942598556,	-2.5524647465
1747,	-0.0000000000,	0.1992279683,	-2.5530973323
1748,	0.2500000000,	0.1942598556,	-2.5524647465
1749,	0.5000000000,	0.1774661432,	-2.5503264167
1750,	0.7500000000,	0.1345487010,	-2.5448617734
1751,	-0.7500000000,	0.1000288788,	-2.5404663923
1752,	-0.5000000000,	0.1000288788,	-2.5404663923
1753,	-0.2500000000,	0.1000288788,	-2.5404663923
1754,	-0.0000000000,	0.1000288788,	-2.5404663923
1755,	0.2500000000,	0.1000288788,	-2.5404663923
1756,	0.5000000000,	0.1000288788,	-2.5404663923
1757,	0.7500000000,	0.1000288788,	-2.5404663923
1758,	-0.7500000000,	0.0655090566,	-2.5360710112
1759,	-0.5000000000,	0.0225916144,	-2.5306063680
1760,	-0.2500000000,	0.0057979019,	-2.5284680381
1761,	-0.0000000000,	0.0008297893,	-2.5278354524
1762,	0.2500000000,	0.0057979019,	-2.5284680381
1763,	0.5000000000,	0.0225916144,	-2.5306063680
1764,	0.7500000000,	0.0655090566,	-2.5360710112
1765,	-0.7500000000,	0.1577449458,	-2.3010677143
1766,	-0.5000000000,	0.2009353658,	-2.3035889824
1767,	-0.2500000000,	0.2178358952,	-2.3045755616
1768,	-0.0000000000,	0.2228356077,	-2.3048674229
1769,	0.2500000000,	0.2178358952,	-2.3045755616
1770,	0.5000000000,	0.2009353658,	-2.3035889824
1771,	0.7500000000,	0.1577449458,	-2.3010677143
1772,	-0.7500000000,	0.1230055592,	-2.2990397805
1773,	-0.5000000000,	0.1230055592,	-2.2990397805
1774,	-0.2500000000,	0.1230055592,	-2.2990397805
1775,	-0.0000000000,	0.1230055592,	-2.2990397805
1776,	0.2500000000,	0.1230055592,	-2.2990397805
1777,	0.5000000000,	0.1230055592,	-2.2990397805
1778,	0.7500000000,	0.1230055592,	-2.2990397805
1779,	-0.7500000000,	0.0882661725,	-2.2970118468
1780,	-0.5000000000,	0.0450757525,	-2.2944905786
1781,	-0.2500000000,	0.0281752232,	-2.2935039995
1782,	-0.0000000000,	0.0231755107,	-2.2932121381
1783,	0.2500000000,	0.0281752232,	-2.2935039995
1784,	0.5000000000,	0.0450757525,	-2.2944905786
1785,	0.7500000000,	0.0882661725,	-2.2970118468
1786,	-0.7500000000,	0.1663774746,	-2.0000000000
1787,	-0.5000000000,	0.2096414223,	-2.0000000000
1788,	-0.2500000000,	0.2265707233,	-2.0000000000
1789,	-0.0000000000,	0.2315789474,	-2.0000000000
1790,	0.2500000000,	0.2265707233,	-2.0000000000
1791,	0.5000000000,	0.2096414223,	-2.0000000000
1792,	0.7500000000,	0.1663774746,	-2.0000000000
1793,	-0.7500000000,	0.1315789474,	-2.0000000000
1794,	-0.5000000000,	0.1315789474,	-2.0000000000
1795,	-0.2500000000,	0.1315789474,	-2.0000000000
1796,	-0.0000000000,	0.1315789474,	-2.0000000000
1797,	0.2500000000,	0.1315789474,	-2.0000000000
1798,	0.5000000000,	0.1315789474,	-2.0000000000
1799,	0.7500000000,	0.1315789474,	-2.0000000000
1800,	-0.7500000000,	0.0967804201,	-2.0000000000
1801,	-0.5000000000,	0.0535164724,	-2.0000000000
1802,	-0.2500000000,	0.0365871714,	-2.0000000000
1803,	-0.0000000000,	0.0315789474,	-2.0000000000
1804,	0.2500000000,	0.0365871714,	-2.0000000000
1805,	0.5000000000,	0.0535164724,	-2.0000000000
1806,	0.7500000000,	0.0967804201,	-2.0000000000
1807,	-0.7500000000,	0.1577449458,	-1.6989322857
1808,	-0.5000000000,	0.2009353658,	-1.6964110176
1809,	-0.2500000000,	0.2178358952,	-1.6954244384
1810,	-0.0000000000,	0.2228356077,	-1.6951325771
1811,	0.2500000000,	0.2178358952,	-1.6954244384
1812,	0.5000000000,	0.2009353658,	-1.6964110176
1813,	0.7500000000,	0.1577449458,	-1.6989322857
1814,	-0.7500000000,	0.1230055592,	-1.7009602195
1815,	-0.5000000000,	0.1230055592,	-1.7009602195
1816,	-0.2500000000,	0.1230055592,	-1.7009602195
1817,	-0.0000000000,	0.1230055592,	-1.7009602195
1818,	0.2500000000,	0.1230055592,	-1.7009602195
1819,	0.5000000000,	0.1230055592,	-1.7009602195
1820,	0.7500000000,	0.1230055592,	-1.7009602195
1821,	-0.7500000000,	0.0882661725,	-1.7029881532
1822,	-0.5000000000,	0.0450757525,	-1.7055094214
1823,	-0.2500000000,	0.0281752232,	-1.7064960005
1824,	-0.0000000000,	0.0231755107,	-1.7067878619
1825,	0.2500000000,	0.0281752232,	-1.7064960005
1826,	0.5000000000,	0.0450757525,	-1.7055094214
1827,	0.7500000000,	0.0882661725,	-1.7029881532
1828,	-0.7500000000,	0.1345487010,	-1.4551382266
1829,	-0.5000000000,	0.1774661432,	-1.4496735833
1830,	-0.2500000000,	0.1942598556,	-1.4475352535
1831,	-0.0000000000,	0.1992279683,	-1.4469026677
1832,	0.2500000000,	0.1942598556,	-1.4475352535
1833,	0.5000000000,	0.1774661432,	-1.4496735833
1834,	0.7500000000,	0.1345487010,	-1.4551382266
1835,	-0.7500000000,	0.1000288788,	-1.4595336077
1836,	-0.5000000000,	0.1000288788,	-1.4595336077
1837,	-0.2500000000,	0.1000288788,	-1.4595336077
1838,	-0.0000000000,	0.1000288788,	-1.4595336077
1839,	0.2500000000,	0.1000288788,	-1.4595336077
1840,	0.5000000000,	0.1000288788,	-1.4595336077
1841,	0.7500000000,	0.1000288788,	-1.4595336077
1842,	-0.7500000000,	0.0655090566,	-1.4639289888
1843,	-0.5000000000,	0.0225916144,	-1.4693936320
1844,	-0.2500000000,	0.0057979019,	-1.4715319619
1845,	-0.0000000000,	0.0008297893,	-1.4721645476
1846,	0.2500000000,	0.0057979019,	-1.4715319619
1847,	0.5000000000,	0.0225916144,	-1.4693936320
1848,	0.7500000000,	0.0655090566,	-1.4639289888
1849,	-0.7500000000,	0.1009293756,	-1.2526506538
1850,	-0.5000000000,	0.1434059804,	-1.2444343763
1851,	-0.2500000000,	0.1600271920,	-1.2412193244
1852,	-0.0000000000,	0.1649442734,	-1.2402682101
1853,	0.2500000000,	0.1600271920,	-1.2412193244
1854,	0.5000000000,	0.1434059804,	-1.2444343763
1855,	0.7500000000,	0.1009293756,	-1.2526506538
1856,	-0.7500000000,	0.0667641326,	-1.2592592593
1857,	-0.5000000000,	0.0667641326,	-1.2592592593
1858,	-0.2500000000,	0.0667641326,	-1.2592592593
1859,	-0.0000000000,	0.0667641326,	-1.2592592593
1860,	0.2500000000,	0.0667641326,	-1.2592592593
1861,	0.5000000000,	0.0667641326,	-1.2592592593
1862,	0.7500000000,	0.0667641326,	-1.2592592593
1863,	-0.7500000000,	0.0325988895,	-1.2658678647
1864,	-0.5000000000,	-0.0098777153,	-1.2740841422
1865,	-0.2500000000,	-0.0264989269,	-1.2772991941
1866,	-0.0000000000,	-0.0314160083,	-1.2782503084
1867,	0.2500000000,	-0.0264989269,	-1.2772991941
1868,	0.5000000000,	-0.0098777153,	-1.2740841422
1869,	0.7500000000,	0.0325988895,	-1.2658678647
1870,	-0.7500000000,	0.0611946931,	-1.0756833864
1871,	-0.5000000000,	0.1033019264,	-1.0657460793
1872,	-0.2500000000,	0.1197786019,	-1.0618575839
1873,	-0.0000000000,	0.1246529249,	-1.0607072436
1874,	0.2500000000,	0.1197786019,	-1.0618575839
1875,	0.5000000000,	0.1033019264,	-1.0657460793
1876,	0.7500000000,	0.0611946931,	-1.0756833864
1877,	-0.7500000000,	0.0273265468,	-1.0836762689
1878,	-0.5000000000,	0.0273265468,	-1.0836762689
1879,	-0.2500000000,	0.0273265468,	-1.0836762689
1880,	-0.0000000000,	0.0273265468,	-1.0836762689
1881,	0.2500000000,	0.0273265468,	-1.0836762689
1882,	0.5000000000,	0.0273265468,	-1.0836762689
1883,	0.7500000000,	0.0273265468,	-1.0836762689
1884,	-0.7500000000,	-0.0065415994,	-1.0916691514
1885,	-0.5000000000,	-0.0486488328,	-1.1016064584
1886,	-0.2500000000,	-0.0651255082,	-1.1054949539
1887,	-0.0000000000,	-0.0699998313,	-1.1066452941
1888,	0.2500000000,	-0.0651255082,	-1.1054949539
1889,	0.5000000000,	-0.0486488328,	-1.1016064584
1890,	0.7500000000,	-0.0065415994,	-1.0916691514
1891,	-0.7500000000,	0.0196994941,	-0.9083308486
1892,	-0.5000000000,	0.0618067275,	-0.8983935416
1893,	-0.2500000000,	0.0782834030,	-0.8945050461
1894,	-0.0000000000,	0.0831577260,	-0.8933547059
1895,	0.2500000000,	0.0782834030,	-0.8945050461
1896,	0.5000000000,	0.0618067275,	-0.8983935416
1897,	0.7500000000,	0.0196994941,	-0.9083308486
1898,	-0.7500000000,	-0.0141686521,	-0.9163237311
1899,	-0.5000000000,	-0.0141686521,	-0.9163237311
1900,	-0.2500000000,	-0.0141686521,	-0.9163237311
1901,	-0.0000000000,	-0.0141686521,	-0.9163237311
1902,	0.2500000000,	-0.0141686521,	-0.9163237311
1903,	0.5000000000,	-0.0141686521,	-0.9163237311
1904,	0.7500000000,	-0.0141686521,	-0.9163237311
1905,	-0.7500000000,	-0.0480367983,	-0.9243166136
1906,	-0.5000000000,	-0.0901440317,	-0.9342539207
1907,	-0.2500000000,	-0.1066207071,	-0.9381424161
1908,	-0.0000000000,	-0.1114950302,	-0.9392927564
1909,	0.2500000000,	-0.1066207071,	-0.9381424161
1910,	0.5000000000,	-0.0901440317,	-0.9342539207
1911,	0.7500000000,	-0.0480367983,	-0.9243166136
1912,	-0.7500000000,	-0.0194409947,	-0.7341321353
1913,	-0.5000000000,	0.0230356101,	-0.7259158578
1914,	-0.2500000000,	0.0396568216,	-0.7227008059
1915,	-0.0000000000,	0.0445739030,	-0.7217496916
1916,	0.2500000000,	0.0396568216,	-0.7227008059
1917,	0.5000000000,	0.0230356101,	-0.7259158578
1918,	0.7500000000,	-0.0194409947,	-0.7341321353
1919,	-0.7500000000,	-0.0536062378,	-0.7407407407
1920,	-0.5000000000,	-0.0536062378,	-0.7407407407
1921,	-0.2500000000,	-0.0536062378,	-0.7407407407
1922,	-0.0000000000,	-0.0536062378,	-0.7407407407
1923,	0.2500000000,	-0.0536062378,	-0.7407407407
1924,	0.5000000000,	-0.0536062378,	-0.7407407407
1925,	0.7500000000,	-0.0536062378,	-0.7407407407
1926,	-0.7500000000,	-0.0877714809,	-0.7473493462
1927,	-0.5000000000,	-0.1302480857,	-0.7555656237
1928,	-0.2500000000,	-0.1468692972,	-0.7587806756
1929,	-0.0000000000,	-0.1517863786,	-0.7597317899
1930,	0.2500000000,	-0.1468692972,	-0.7587806756
1931,	0.5000000000,	-0.1302480857,	-0.7555656237
1932,	0.7500000000,	-0.0877714809,	-0.7473493462
1933,	-0.7500000000,	-0.0523511618,	-0.5360710112
1934,	-0.5000000000,	-0.0094337196,	-0.5306063680
1935,	-0.2500000000,	0.0073599928,	-0.5284680381
1936,	-0.0000000000,	0.0123281054,	-0.5278354524
1937,	0.2500000000,	0.0073599928,	-0.5284680381
1938,	0.5000000000,	-0.0094337196,	-0.5306063680
1939,	0.7500000000,	-0.0523511618,	-0.5360710112
1940,	-0.7500000000,	-0.0868709840,	-0.5404663923
1941,	-0.5000000000,	-0.0868709840,	-0.5404663923
1942,	-0.2500000000,	-0.0868709840,	-0.5404663923
1943,	-0.0000000000,	-0.0868709840,	-0.5404663923
1944,	0.2500000000,	-0.0868709840,	-0.5404663923
1945,	0.5000000000,	-0.0868709840,	-0.5404663923
1946,	0.7500000000,	-0.0868709840,	-0.5404663923
1947,	-0.7500000000,	-0.1213908062,	-0.5448617734
1948,	-0.5000000000,	-0.1643082485,	-0.5503264167
1949,	-0.2500000000,	-0.1811019609,	-0.5524647465
1950,	-0.0000000000,	-0.1860700735,	-0.5530973323
1951,	0.2500000000,	-0.1811019609,	-0.5524647465
1952,	0.5000000000,	-0.1643082485,	-0.5503264167
1953,	0.7500000000,	-0.1213908062,	-0.5448617734
1954,	-0.7500000000,	-0.0751082778,	-0.2970118468
1955,	-0.5000000000,	-0.0319178578,	-0.2944905786
1956,	-0.2500000000,	-0.0150173284,	-0.2935039995
1957,	-0.0000000000,	-0.0100176159,	-0.2932121381
1958,	0.2500000000,	-0.0150173284,	-0.2935039995
1959,	0.5000000000,	-0.0319178578,	-0.2944905786
1960,	0.7500000000,	-0.0751082778,	-0.2970118468
1961,	-0.7500000000,	-0.1098476644,	-0.2990397805
1962,	-0.5000000000,	-0.1098476644,	-0.2990397805
1963,	-0.2500000000,	-0.1098476644,	-0.2990397805
1964,	-0.0000000000,	-0.1098476644,	-0.2990397805
1965,	0.2500000000,	-0.1098476644,	-0.2990397805
1966,	0.5000000000,	-0.1098476644,	-0.2990397805
1967,	0.7500000000,	-0.1098476644,	-0.2990397805
1968,	-0.7500000000,	-0.1445870511,	-0.3010677143
1969,	-0.5000000000,	-0.1877774711,	-0.3035889824
1970,	-0.2500000000,	-0.2046780004,	-0.3045755616
1971,	-0.0000000000,	-0.2096777129,	-0.3048674229
1972,	0.2500000000,	-0.2046780004,	-0.3045755616
1973,	0.5000000000,	-0.1877774711,	-0.3035889824
1974,	0.7500000000,	-0.1445870511,	-0.3010677143
1975,	-0.7500000000,	-0.0836225254,	0.0000000000
1976,	-0.5000000000,	-0.0403585777,	0.0000000000
1977,	-0.2500000000,	-0.0234292767,	0.0000000000
1978,	-0.0000000000,	-0.0184210526,	0.0000000000
1979,	0.2500000000,	-0.0234292767,	0.0000000000
1980,	0.5000000000,	-0.0403585777,	0.0000000000
1981,	0.7500000000,	-0.0836225254,	0.0000000000
1982,	-0.7500000000,	-0.1184210526,	0.0000000000
1983,	-0.5000000000,	-0.1184210526,	0.0000000000
1984,	-0.2500000000,	-0.1184210526,	0.0000000000
1985,	-0.0000000000,	-0.1184210526,	0.0000000000
1986,	0.2500000000,	-0.1184210526,	0.0000000000
1987,	0.5000000000,	-0.1184210526,	0.0000000000
1988,	0.7500000000,	-0.1184210526,	0.0000000000
1989,	-0.7500000000,	-0.1532195799,	0.0000000000
1990,	-0.5000000000,	-0.1964835276,	0.0000000000
1991,	-0.2500000000,	-0.2134128286,	0.0000000000
1992,	-0.0000000000,	-0.2184210526,	0.0000000000
1993,	0.2500000000,	-0.2134128286,	0.0000000000
1994,	0.5000000000,	-0.1964835276,	0.0000000000
1995,	0.7500000000,	-0.1532195799,	0.0000000000
1996,	-0.7500000000,	-0.0836225254,	0.0000000000
1997,	-0.5000000000,	-0.0403585777,	0.0000000000
1998,	-0.2500000000,	-0.0234292767,	0.0000000000
1999,	-0.0000000000,	-0.0184210526,	0.0000000000
2000,	0.2500000000,	-0.0234292767,	0.0000000000
2001,	0.5000000000,	-0.0403585777,	0.0000000000
2002,	0.7500000000,	-0.0836225254,	0.0000000000
2003,	-0.7500000000,	-0.1184210526,	0.0000000000
2004,	-0.5000000000,	-0.1184210526,	0.0000000000
2005,	-0.2500000000,	-0.1184210526,	0.0000000000
2006,	-0.0000000000,	-0.1184210526,	0.0000000000
2007,	0.2500000000,	-0.1184210526,	0.0000000000
2008,	0.5000000000,	-0.1184210526,	0.0000000000
2009,	0.7500000000,	-0.1184210526,	0.0000000000
2010,	-0.7500000000,	-0.1532195799,	0.0000000000
2011,	-0.5000000000,	-0.1964835276,	0.0000000000
2012,	-0.2500000000,	-0.2134128286,	0.0000000000
2013,	-0.0000000000,	-0.2184210526,	0.0000000000
2014,	0.2500000000,	-0.2134128286,	0.0000000000
2015,	0.5000000000,	-0.1964835276,	0.0000000000
2016,	0.7500000000,	-0.1532195799,	0.0000000000
2017,	-0.7500000000,	-0.0751082778,	0.2970118468
2018,	-0.5000000000,	-0.0319178578,	0.2944905786
2019,	-0.2500000000,	-0.0150173284,	0.2935039995
2020,	-0.0000000000,	-0.0100176159,	0.2932121381
2021,	0.2500000000,	-0.0150173284,	0.2935039995
2022,	0.5000000000,	-0.0319178578,	0.2944905786
2023,	0.7500000000,	-0.0751082778,	0.2970118468
2024,	-0.7500000000,	-0.1098476644,	0.2990397805
2025,	-0.5000000000,	-0.1098476644,	0.2990397805
2026,	-0.2500000000,	-0.1098476644,	0.2990397805
2027,	-0.0000000000,	-0.1098476644,	0.2990397805
2028,	0.2500000000,	-0.1098476644,	0.2990397805
2029,	0.5000000000,	-0.1098476644,	0.2990397805
2030,	0.7500000000,	-0.1098476644,	0.2990397805
2031,	-0.7500000000,	-0.1445870511,	0.3010677143
2032,	-0.5000000000,	-0.1877774711,	0.3035889824
2033,	-0.2500000000,	-0.2046780004,	0.3045755616
2034,	-0.0000000000,	-0.2096777129,	0.3048674229
2035,	0.2500000000,	-0.2046780004,	0.3045755616
2036,	0.5000000000,	-0.1877774711,	0.3035889824
2037,	0.7500000000,	-0.1445870511,	0.3010677143
2038,	-0.7500000000,	-0.0523511618,	0.5360710112
2039,	-0.5000000000,	-0.0094337196,	0.5306063680
2040,	-0.2500000000,	0.0073599928,	0.5284680381
2041,	-0.0000000000,	0.0123281054,	0.5278354524
2042,	0.2500000000,	0.0073599928,	0.5284680381
2043,	0.5000000000,	-0.0094337196,	0.5306063680
2044,	0.7500000000,	-0.0523511618,	0.5360710112
2045,	-0.7500000000,	-0.0868709840,	0.5404663923
2046,	-0.5000000000,	-0.0868709840,	0.5404663923
2047,	-0.2500000000,	-0.0868709840,	0.5404663923
2048,	-0.0000000000,	-0.0868709840,	0.5404663923
2049,	0.2500000000,	-0.0868709840,	0.5404663923
2050,	0.5000000000,	-0.0868709840,	0.5404663923
2051,	0.7500000000,	-0.0868709840,	0.5404663923
2052,	-0.7500000000,	-0.1213908062,	0.5448617734
2053,	-0.5000000000,	-0.1643082485,	0.5503264167
2054,	-0.2500000000,	-0.1811019609,	0.5524647465
2055,	-0.0000000000,	-0.1860700735,	0.5530973323
2056,	0.2500000000,	-0.1811019609,	0.5524647465
2057,	0.5000000000,	-0.1643082485,	0.5503264167
2058,	0.7500000000,	-0.1213908062,	0.5448617734
2059,	-0.7500000000,	-0.0194409947,	0.7341321353
2060,	-0.5000000000,	0.0230356101,	0.7259158578
2061,	-0.2500000000,	0.0396568216,	0.7227008059
2062,	-0.0000000000,	0.0445739030,	0.7217496916
2063,	0.2500000000,	0.0396568216,	0.7227008059
2064,	0.5000000000,	0.0230356101,	0.7259158578
2065,	0.7500000000,	-0.0194409947,	0.7341321353
2066,	-0.7500000000,	-0.0536062378,	0.7407407407
2067,	-0.5000000000,	-0.0536062378,	0.7407407407
2068,	-0.2500000000,	-0.0536062378,	0.7407407407
2069,	-0.0000000000,	-0.0536062378,	0.7407407407
2070,	0.2500000000,	-0.0536062378,	0.7407407407
2071,	0.5000000000,	-0.0536062378,	0.7407407407
2072,	0.7500000000,	-0.0536062378,	0.7407407407
2073,	-0.7500000000,	-0.0877714809,	0.7473493462
2074,	-0.5000000000,	-0.1302480857,	0.7555656237
2075,	-0.2500000000,	-0.1468692972,	0.7587806756
2076,	-0.0000000000,	-0.1517863786,	0.7597317899
2077,	0.2500000000,	-0.1468692972,	0.7587806756
2078,	0.5000000000,	-0.1302480857,	0.7555656237
2079,	0.7500000000,	-0.0877714809,	0.7473493462
2080,	-0.7500000000,	0.0196994941,	0.9083308486
2081,	-0.5000000000,	0.0618067275,	0.8983935416
2082,	-0.2500000000,	0.0782834030,	0.8945050461
2083,	-0.0000000000,	0.0831577260,	0.8933547059
2084,	0.2500000000,	0.0782834030,	0.8945050461
2085,	0.5000000000,	0.0618067275,	0.8983935416
2086,	0.7500000000,	0.0196994941,	0.9083308486
2087,	-0.7500000000,	-0.0141686521,	0.9163237311
2088,	-0.5000000000,	-0.0141686521,	0.9163237311
2089,	-0.2500000000,	-0.0141686521,	0.9163237311
2090,	-0.0000000000,	-0.0141686521,	0.9163237311
2091,	0.2500000000,	-0.0141686521,	0.9163237311
2092,	0.5000000000,	-0.0141686521,	0.9163237311
2093,	0.7500000000,	-0.0141686521,	0.9163237311
2094,	-0.7500000000,	-0.0480367983,	0.9243166136
2095,	-0.5000000000,	-0.0901440317,	0.9342539207
2096,	-0.2500000000,	-0.1066207071,	0.9381424161
2097,	-0.0000000000,	-0.1114950302,	0.9392927564
2098,	0.2500000000,	-0.1066207071,	0.9381424161
2099,	0.5000000000,	-0.0901440317,	0.9342539207
2100,	0.7500000000,	-0.0480367983,	0.9243166136
2101,	-0.7500000000,	0.0611946931,	1.0756833864
2102,	-0.5000000000,	0.1033019264,	1.0657460793
2103,	-0.2500000000,	0.1197786019,	1.0618575839
2104,	-0.0000000000,	0.1246529249,	1.0607072436
2105,	0.2500000000,	0.1197786019,	1.0618575839
2106,	0.5000000000,	0.1033019264,	1.0657460793
2107,	0.7500000000,	0.0611946931,	1.0756833864
2108,	-0.7500000000,	0.0273265468,	1.0836762689
2109,	-0.5000000000,	0.0273265468,	1.0836762689
2110,	-0.2500000000,	0.0273265468,	1.0836762689
2111,	-0.0000000000,	0.0273265468,	1.0836762689
2112,	0.2500000000,	0.0273265468,	1.0836762689
2113,	0.5000000000,	0.0273265468,	1.0836762689
2114,	0.7500000000,	0.0273265468,	1.0836762689
2115,	-0.7500000000,	-0.0065415994,	1.0916691514
2116,	-0.5000000000,	-0.0486488328,	1.1016064584
2117,	-0.2500000000,	-0.0651255082,	1.1054949539
2118,	-0.0000000000,	-0.0699998313,	1.1066452941
2119,	0.2500000000,	-0.0651255082,	1.1054949539
2120,	0.5000000000,	-0.0486488328,	1.1016064584
2121,	0.7500000000,	-0.0065415994,	1.0916691514
2122,	-0.7500000000,	0.1009293756,	1.2526506538
2123,	-0.5000000000,	0.1434059804,	1.2444343763
2124,	-0.2500000000,	0.1600271920,	1.2412193244
2125,	-0.0000000000,	0.1649442734,	1.2402682101
2126,	0.2500000000,	0.1600271920,	1.2412193244
2127,	0.5000000000,	0.1434059804,	1.2444343763
2128,	0.7500000000,	0.1009293756,	1.2526506538
2129,	-0.7500000000,	0.0667641326,	1.2592592593
2130,	-0.5000000000,	0.0667641326,	1.2592592593
2131,	-0.2500000000,	0.0667641326,	1.2592592593
2132,	-0.0000000000,	0.0667641326,	1.2592592593
2133,	0.2500000000,	0.0667641326,	1.2592592593
2134,	0.5000000000,	0.0667641326,	1.2592592593
2135,	0.7500000000,	0.0667641326,	1.2592592593
2136,	-0.7500000000,	0.0325988895,	1.2658678647
2137,	-0.5000000000,	-0.0098777153,	1.2740841422
2138,	-0.2500000000,	-0.0264989269,	1.2772991941
2139,	-0.0000000000,	-0.0314160083,	1.2782503084
2140,	0.2500000000,	-0.0264989269,	1.2772991941
2141,	0.5000000000,	-0.0098777153,	1.2740841422
2142,	0.7500000000,	0.0325988895,	1.2658678647
2143,	-0.7500000000,	0.1345487010,	1.4551382266
2144,	-0.5000000000,	0.1774661432,	1.4496735833
2145,	-0.2500000000,	0.1942598556,	1.4475352535
2146,	-0.0000000000,	0.1992279683,	1.4469026677
2147,	0.2500000000,	0.1942598556,	1.4475352535
2148,	0.5000000000,	0.1774661432,	1.4496735833
2149,	0.7500000000,	0.1345487010,	1.4551382266
2150,	-0.7500000000,	0.1000288788,	1.4595336077
2151,	-0.5000000000,	0.1000288788,	1.4595336077
2152,	-0.2500000000,	0.1000288788,	1.4595336077
2153,	-0.0000000000,	0.1000288788,	1.4595336077
2154,	0.2500000000,	0.1000288788,	1.4595336077
2155,	0.5000000000,	0.1000288788,	1.4595336077
2156,	0.7500000000,	0.1000288788,	1.4595336077
2157,	-0.7500000000,	0.0655090566,	1.4639289888
2158,	-0.5000000000,	0.0225916144,	1.4693936320
2159,	-0.2500000000,	0.0057979019,	1.4715319619
2160,	-0.0000000000,	0.0008297893,	1.4721645476
2161,	0.2500000000,	0.0057979019,	1.4715319619
2162,	0.5000000000,	0.0225916144,	1.4693936320
2163,	0.7500000000,	0.0655090566,	1.4639289888
2164,	-0.7500000000,	0.1577449458,	1.6989322857
2165,	-0.5000000000,	0.2009353658,	1.6964110176
2166,	-0.2500000000,	0.2178358952,	1.6954244384
2167,	-0.0000000000,	0.2228356077,	1.6951325771
2168,	0.2500000000,	0.2178358952,	1.6954244384
2169,	0.5000000000,	0.2009353658,	1.6964110176
2170,	0.7500000000,	0.1577449458,	1.6989322857
2171,	-0.7500000000,	0.1230055592,	1.7009602195
2172,	-0.5000000000,	0.1230055592,	1.7009602195
2173,	-0.2500000000,	0.1230055592,	1.7009602195
2174,	-0.0000000000,	0.1230055592,	1.7009602195
2175,	0.2500000000,	0.1230055592,	1.7009602195
2176,	0.5000000000,	0.1230055592,	1.7009602195
2177,	0.7500000000,	0.1230055592,	1.7009602195
2178,	-0.7500000000,	0.0882661725,	1.7029881532
2179,	-0.5000000000,	0.0450757525,	1.7055094214
2180,	-0.2500000000,	0.0281752232,	1.7064960005
2181,	-0.0000000000,	0.0231755107,	1.7067878619
2182,	0.2500000000,	0.0281752232,	1.7064960005
2183,	0.5000000000,	0.0450757525,	1.7055094214
2184,	0.7500000000,	0.0882661725,	1.7029881532
2185,	-0.7500000000,	0.1663774746,	2.0000000000
2186,	-0.5000000000,	0.2096414223,	2.0000000000
2187,	-0.2500000000,	0.2265707233,	2.0000000000
2188,	-0.0000000000,	0.2315789474,	2.0000000000
2189,	0.2500000000,	0.2265707233,	2.0000000000
2190,	0.5000000000,	0.2096414223,	2.0000000000
2191,	0.7500000000,	0.1663774746,	2.0000000000
2192,	-0.7500000000,	0.1315789474,	2.0000000000
2193,	-0.5000000000,	0.1315789474,	2.0000000000
2194,	-0.2500000000,	0.1315789474,	2.0000000000
2195,	-0.0000000000,	0.1315789474,	2.0000000000
2196,	0.2500000000,	0.1315789474,	2.0000000000
2197,	0.5000000000,	0.1315789474,	2.0000000000
2198,	0.7500000000,	0.1315789474,	2.0000000000
2199,	-0.7500000000,	0.0967804201,	2.0000000000
2200,	-0.5000000000,	0.0535164724,	2.0000000000
2201,	-0.2500000000,	0.0365871714,	2.0000000000
2202,	-0.0000000000,	0.0315789474,	2.0000000000
2203,	0.2500000000,	0.0365871714,	2.0000000000
2204,	0.5000000000,	0.0535164724,	2.0000000000
2205,	0.7500000000,	0.0967804201,	2.0000000000
2206,	-0.7500000000,	0.1577449458,	2.3010677143
2207,	-0.5000000000,	0.2009353658,	2.3035889824
2208,	-0.2500000000,	0.2178358952,	2.3045755616
2209,	-0.0000000000,	0.2228356077,	2.3048674229
2210,	0.2500000000,	0.2178358952,	2.3045755616
2211,	0.5000000000,	0.2009353658,	2.3035889824
2212,	0.7500000000,	0.1577449458,	2.3010677143
2213,	-0.7500000000,	0.1230055592,	2.2990397805
2214,	-0.5000000000,	0.1230055592,	2.2990397805
2215,	-0.2500000000,	0.1230055592,	2.2990397805
2216,	-0.0000000000,	0.1230055592,	2.2990397805
2217,	0.2500000000,	0.1230055592,	2.2990397805
2218,	0.5000000000,	0.1230055592,	2.2990397805
2219,	0.7500000000,	0.1230055592,	2.2990397805
2220,	-0.7500000000,	0.0882661725,	2.2970118468
2221,	-0.5000000000,	0.0450757525,	2.2944905786
2222,	-0.2500000000,	0.0281752232,	2.2935039995
2223,	-0.0000000000,	0.0231755107,	2.2932121381
2224,	0.2500000000,	0.0281752232,	2.2935039995
2225,	0.5000000000,	0.0450757525,	2.2944905786
2226,	0.7500000000,	0.0882661725,	2.2970118468
2227,	-0.7500000000,	0.1345487010,	2.5448617734
2228,	-0.5000000000,	0.1774661432,	2.5503264167
2229,	-0.2500000000,	0.1942598556,	2.5524647465
2230,	-0.0000000000,	0.1992279683,	2.5530973323
2231,	0.2500000000,	0.1942598556,	2.5524647465
2232,	0.5000000000,	0.1774661432,	2.5503264167
2233,	0.7500000000,	0.1345487010,	2.5448617734
2234,	-0.7500000000,	0.1000288788,	2.5404663923
2235,	-0.5000000000,	0.1000288788,	2.5404663923
2236,	-0.2500000000,	0.1000288788,	2.5404663923
2237,	-0.0000000000,	0.1000288788,	2.5404663923
2238,	0.2500000000,	0.1000288788,	2.5404663923
2239,	0.5000000000,	0.1000288788,	2.5404663923
2240,	0.7500000000,	0.1000288788,	2.5404663923
2241,	-0.7500000000,	0.0655090566,	2.5360710112
2242,	-0.5000000000,	0.0225916144,	2.5306063680
2243,	-0.2500000000,	0.0057979019,	2.5284680381
2244,	-0.0000000000,	0.0008297893,	2.5278354524
2245,	0.2500000000,	0.0057979019,	2.5284680381
2246,	0.5000000000,	0.0225916144,	2.5306063680
2247,	0.7500000000,	0.0655090566,	2.5360710112
2248,	-0.7500000000,	0.1009293756,	2.7473493462
2249,	-0.5000000000,	0.1434059804,	2.7555656237
2250,	-0.2500000000,	0.1600271920,	2.7587806756
2251,	-0.0000000000,	0.1649442734,	2.7597317899
2252,	0.2500000000,	0.1600271920,	2.7587806756
2253,	0.5000000000,	0.1434059804,	2.7555656237
2254,	0.7500000000,	0.1009293756,	2.7473493462
2255,	-0.7500000000,	0.0667641326,	2.7407407407
2256,	-0.5000000000,	0.0667641326,	2.7407407407
2257,	-0.2500000000,	0.0667641326,	2.7407407407
2258,	-0.0000000000,	0.0667641326,	2.7407407407
2259,	0.2500000000,	0.0667641326,	2.7407407407
2260,	0.5000000000,	0.0667641326,	2.7407407407
2261,	0.7500000000,	0.0667641326,	2.7407407407
2262,	-0.7500000000,	0.0325988895,	2.7341321353
2263,	-0.5000000000,	-0.0098777153,	2.7259158578
2264,	-0.2500000000,	-0.0264989269,	2.7227008059
2265,	-0.0000000000,	-0.0314160083,	2.7217496916
2266,	0.2500000000,	-0.0264989269,	2.7227008059
2267,	0.5000000000,	-0.0098777153,	2.7259158578
2268,	0.7500000000,	0.0325988895,	2.7341321353
2269,	-0.7500000000,	0.0611946931,	2.9243166136
2270,	-0.5000000000,	0.1033019264,	2.9342539207
2271,	-0.2500000000,	0.1197786019,	2.9381424161
2272,	-0.0000000000,	0.1246529249,	2.9392927564
2273,	0.2500000000,	0.1197786019,	2.9381424161
2274,	0.5000000000,	0.1033019264,	2.9342539207
2275,	0.7500000000,	0.0611946931,	2.9243166136
2276,	-0.7500000000,	0.0273265468,	2.9163237311
2277,	-0.5000000000,	0.0273265468,	2.9163237311
2278,	-0.2500000000,	0.0273265468,	2.9163237311
2279,	-0.0000000000,	0.0273265468,	2.9163237311
2280,	0.2500000000,	0.0273265468,	2.9163237311
2281,	0.5000000000,	0.0273265468,	2.9163237311
2282,	0.7500000000,	0.0273265468,	2.9163237311
2283,	-0.7500000000,	-0.0065415994,	2.9083308486
2284,	-0.5000000000,	-0.0486488328,	2.8983935416
2285,	-0.2500000000,	-0.0651255082,	2.8945050461
2286,	-0.0000000000,	-0.0699998313,	2.8933547059
2287,	0.2500000000,	-0.0651255082,	2.8945050461
2288,	0.5000000000,	-0.0486488328,	2.8983935416
2289,	0.7500000000,	-0.0065415994,	2.9083308486
2290,	-0.7500000000,	0.0196994941,	3.0916691514
2291,	-0.5000000000,	0.0618067275,	3.1016064584
2292,	-0.2500000000,	0.0782834030,	3.1054949539
2293,	-0.0000000000,	0.0831577260,	3.1066452941
2294,	0.2500000000,	0.0782834030,	3.1054949539
2295,	0.5000000000,	0.0618067275,	3.1016064584
2296,	0.7500000000,	0.0196994941,	3.0916691514
2297,	-0.7500000000,	-0.0141686521,	3.0836762689
2298,	-0.5000000000,	-0.0141686521,	3.0836762689
2299,	-0.2500000000,	-0.0141686521,	3.0836762689
2300,	-0.0000000000,	-0.0141686521,	3.0836762689
2301,	0.2500000000,	-0.0141686521,	3.0836762689
2302,	0.5000000000,	-0.0141686521,	3.0836762689
2303,	0.7500000000,	-0.0141686521,	3.0836762689
2304,	-0.7500000000,	-0.0480367983,	3.0756833864
2305,	-0.5000000000,	-0.0901440317,	3.0657460793
2306,	-0.2500000000,	-0.1066207071,	3.0618575839
2307,	-0.0000000000,	-0.1114950302,	3.0607072436
2308,	0.2500000000,	-0.1066207071,	3.0618575839
2309,	0.5000000000,	-0.0901440317,	3.0657460793
2310,	0.7500000000,	-0.0480367983,	3.0756833864
2311,	-0.7500000000,	-0.0194409947,	3.2658678647
2312,	-0.5000000000,	0.0230356101,	3.2740841422
2313,	-0.2500000000,	0.0396568216,	3.2772991941
2314,	-0.0000000000,	0.0445739030,	3.2782503084
2315,	0.2500000000,	0.0396568216,	3.2772991941
2316,	0.5000000000,	0.0230356101,	3.2740841422
2317,	0.7500000000,	-0.0194409947,	3.2658678647
2318,	-0.7500000000,	-0.0536062378,	3.2592592593
2319,	-0.5000000000,	-0.0536062378,	3.2592592593
2320,	-0.2500000000,	-0.0536062378,	3.2592592593
2321,	-0.0000000000,	-0.0536062378,	3.2592592593
2322,	0.2500000000,	-0.0536062378,	3.2592592593
2323,	0.5000000000,	-0.0536062378,	3.2592592593
2324,	0.7500000000,	-0.0536062378,	3.2592592593
2325,	-0.7500000000,	-0.0877714809,	3.2526506538
2326,	-0.5000000000,	-0.1302480857,	3.2444343763
2327,	-0.2500000000,	-0.1468692972,	3.2412193244
2328,	-0.0000000000,	-0.1517863786,	3.2402682101
2329,	0.2500000000,	-0.1468692972,	3.2412193244
2330,	0.5000000000,	-0.1302480857,	3.2444343763
2331,	0.7500000000,	-0.0877714809,	3.2526506538
2332,	-0.7500000000,	-0.0523511618,	3.4639289888
2333,	-0.5000000000,	-0.0094337196,	3.4693936320
2334,	-0.2500000000,	0.0073599928,	3.4715319619
2335,	-0.0000000000,	0.0123281054,	3.4721645476
2336,	0.2500000000,	0.0073599928,	3.4715319619
2337,	0.5000000000,	-0.0094337196,	3.4693936320
2338,	0.7500000000,	-0.0523511618,	3.4639289888
2339,	-0.7500000000,	-0.0868709840,	3.4595336077
2340,	-0.5000000000,	-0.0868709840,	3.4595336077
2341,	-0.2500000000,	-0.0868709840,	3.4595336077
2342,	-0.0000000000,	-0.0868709840,	3.4595336077
2343,	0.2500000000,	-0.0868709840,	3.4595336077
2344,	0.5000000000,	-0.0868709840,	3.4595336077
2345,	0.7500000000,	-0.0868709840,	3.4595336077
2346,	-0.7500000000,	-0.1213908062,	3.4551382266
2347,	-0.5000000000,	-0.1643082485,	3.4496735833
2348,	-0.2500000000,	-0.1811019609,	3.4475352535
2349,	-0.0000000000,	-0.1860700735,	3.4469026677
2350,	0.2500000000,	-0.1811019609,	3.4475352535
2351,	0.5000000000,	-0.1643082485,	3.4496735833
2352,	0.7500000000,	-0.1213908062,	3.4551382266
2353,	-0.7500000000,	-0.0751082778,	3.7029881532
2354,	-0.5000000000,	-0.0319178578,	3.7055094214
2355,	-0.2500000000,	-0.0150173284,	3.7064960005
2356,	-0.0000000000,	-0.0100176159,	3.7067878619
2357,	0.2500000000,	-0.0150173284,	3.7064960005
2358,	0.5000000000,	-0.0319178578,	3.7055094214
2359,	0.7500000000,	-0.0751082778,	3.7029881532
2360,	-0.7500000000,	-0.1098476644,	3.7009602195
2361,	-0.5000000000,	-0.1098476644,	3.7009602195
2362,	-0.2500000000,	-0.1098476644,	3.7009602195
2363,	-0.0000000000,	-0.1098476644,	3.7009602195
2364,	0.2500000000,	-0.1098476644,	3.7009602195
2365,	0.5000000000,	-0.1098476644,	3.7009602195
2366,	0.7500000000,	-0.1098476644,	3.7009602195
2367,	-0.7500000000,	-0.1445870511,	3.6989322857
2368,	-0.5000000000,	-0.1877774711,	3.6964110176
2369,	-0.2500000000,	-0.2046780004,	3.6954244384
2370,	-0.0000000000,	-0.2096777129,	3.6951325771
2371,	0.2500000000,	-0.2046780004,	3.6954244384
2372,	0.5000000000,	-0.1877774711,	3.6964110176
2373,	0.7500000000,	-0.1445870511,	3.6989322857
2374,	-0.7500000000,	-0.0836225254,	4.0000000000
2375,	-0.5000000000,	-0.0403585777,	4.0000000000
2376,	-0.2500000000,	-0.0234292767,	4.0000000000
2377,	-0.0000000000,	-0.0184210526,	4.0000000000
2378,	0.2500000000,	-0.0234292767,	4.0000000000
2379,	0.5000000000,	-0.0403585777,	4.0000000000
2380,	0.7500000000,	-0.0836225254,	4.0000000000
2381,	-0.7500000000,	-0.1184210526,	4.0000000000
2382,	-0.5000000000,	-0.1184210526,	4.0000000000
2383,	-0.2500000000,	-0.1184210526,	4.0000000000
2384,	-0.0000000000,	-0.1184210526,	4.0000000000
2385,	0.2500000000,	-0.1184210526,	4.0000000000
2386,	0.5000000000,	-0.1184210526,	4.0000000000
2387,	0.7500000000,	-0.1184210526,	4.0000000000
2388,	-0.7500000000,	-0.1532195799,	4.0000000000
2389,	-0.5000000000,	-0.1964835276,	4.0000000000
2390,	-0.2500000000,	-0.2134128286,	4.0000000000
2391,	-0.0000000000,	-0.2184210526,	4.0000000000
2392,	0.2500000000,	-0.2134128286,	4.0000000000
2393,	0.5000000000,	-0.1964835276,	4.0000000000
2394,	0.7500000000,	-0.1532195799,	4.0000000000
2395,	1.2500000000,	0.1532195799,	-4.0000000000
2396,	1.5000000000,	0.1964835276,	-4.0000000000
2397,	1.7500000000,	0.2134128286,	-4.0000000000
2398,	2.0000000000,	0.2184210526,	-4.0000000000
2399,	2.2500000000,	0.2134128286,	-4.0000000000
2400,	2.5000000000,	0.1964835276,	-4.0000000000
2401,	2.7500000000,	0.1532195799,	-4.0000000000
2402,	1.2500000000,	0.1184210526,	-4.0000000000
2403,	1.5000000000,	0.1184210526,	-4.0000000000
2404,	1.7500000000,	0.1184210526,	-4.0000000000
2405,	2.0000000000,	0.1184210526,	-4.0000000000
2406,	2.2500000000,	0.1184210526,	-4.0000000000
2407,	2.5000000000,	0.1184210526,	-4.0000000000
2408,	2.7500000000,	0.1184210526,	-4.0000000000
2409,	1.2500000000,	0.0836225254,	-4.0000000000
2410,	1.5000000000,	0.0403585777,	-4.0000000000
2411,	1.7500000000,	0.0234292767,	-4.0000000000
2412,	2.0000000000,	0.0184210526,	-4.0000000000
2413,	2.2500000000,	0.0234292767,	-4.0000000000
2414,	2.5000000000,	0.0403585777,	-4.0000000000
2415,	2.7500000000,	0.0836225254,	-4.0000000000
2416,	1.2500000000,	0.1445870511,	-3.6989322857
2417,	1.5000000000,	0.1877774711,	-3.6964110176
2418,	1.7500000000,	0.2046780004,	-3.6954244384
2419,	2.0000000000,	0.2096777129,	-3.6951325771
2420,	2.2500000000,	0.2046780004,	-3.6954244384
2421,	2.5000000000,	0.1877774711,	-3.6964110176
2422,	2.7500000000,	0.1445870511,	-3.6989322857
2423,	1.2500000000,	0.1098476644,	-3.7009602195
2424,	1.5000000000,	0.1098476644,	-3.7009602195
2425,	1.7500000000,	0.1098476644,	-3.7009602195
2426,	2.0000000000,	0.1098476644,	-3.7009602195
2427,	2.2500000000,	0.1098476644,	-3.7009602195
2428,	2.5000000000,	0.1098476644,	-3.7009602195
2429,	2.7500000000,	0.1098476644,	-3.7009602195
2430,	1.2500000000,	0.0751082778,	-3.7029881532
2431,	1.5000000000,	0.0319178578,	-3.7055094214
2432,	1.7500000000,	0.0150173284,	-3.7064960005
2433,	2.0000000000,	0.0100176159,	-3.7067878619
2434,	2.2500000000,	0.0150173284,	-3.7064960005
2435,	2.5000000000,	0.0319178578,	-3.7055094214
2436,	2.7500000000,	0.0751082778,	-3.7029881532
2437,	1.2500000000,	0.1213908062,	-3.4551382266
2438,	1.5000000000,	0.1643082485,	-3.4496735833
2439,	1.7500000000,	0.1811019609,	-3.4475352535
2440,	2.0000000000,	0.1860700735,	-3.4469026677
2441,	2.2500000000,	0.1811019609,	-3.4475352535
2442,	2.5000000000,	0.1643082485,	-3.4496735833
2443,	2.7500000000,	0.1213908062,	-3.4551382266
2444,	1.2500000000,	0.0868709840,	-3.4595336077
2445,	1.5000000000,	0.0868709840,	-3.4595336077
2446,	1.7500000000,	0.0868709840,	-3.4595336077
2447,	2.0000000000,	0.0868709840,	-3.4595336077
2448,	2.2500000000,	0.0868709840,	-3.4595336077
2449,	2.5000000000,	0.0868709840,	-3.4595336077
2450,	2.7500000000,	0.0868709840,	-3.4595336077
2451,	1.2500000000,	0.0523511618,	-3.4639289888
2452,	1.5000000000,	0.0094337196,	-3.4693936320
2453,	1.7500000000,	-0.0073599928,	-3.4715319619
2454,	2.0000000000,	-0.0123281054,	-3.4721645476
2455,	2.2500000000,	-0.0073599928,	-3.4715319619
2456,	2.5000000000,	0.0094337196,	-3.4693936320
2457,	2.7500000000,	0.0523511618,	-3.4639289888
2458,	1.2500000000,	0.0877714809,	-3.2526506538
2459,	1.5000000000,	0.1302480857,	-3.2444343763
2460,	1.7500000000,	0.1468692972,	-3.2412193244
2461,	2.0000000000,	0.1517863786,	-3.2402682101
2462,	2.2500000000,	0.1468692972,	-3.2412193244
2463,	2.5000000000,	0.1302480857,	-3.2444343763
2464,	2.7500000000,	0.0877714809,	-3.2526506538
2465,	1.2500000000,	0.0536062378,	-3.2592592593
2466,	1.5000000000,	0.0536062378,	-3.2592592593
2467,	1.7500000000,	0.0536062378,	-3.2592592593
2468,	2.0000000000,	0.0536062378,	-3.2592592593
2469,	2.2500000000,	0.0536062378,	-3.2592592593
2470,	2.5000000000,	0.0536062378,	-3.2592592593
2471,	2.7500000000,	0.0536062378,	-3.2592592593
2472,	1.2500000000,	0.0194409947,	-3.2658678647
2473,	1.5000000000,	-0.0230356101,	-3.2740841422
2474,	1.7500000000,	-0.0396568216,	-3.2772991941
2475,	2.0000000000,	-0.0445739030,	-3.2782503084
2476,	2.2500000000,	-0.0396568216,	-3.2772991941
2477,	2.5000000000,	-0.0230356101,	-3.2740841422
2478,	2.7500000000,	0.0194409947,	-3.2658678647
2479,	1.2500000000,	0.0480367983,	-3.0756833864
2480,	1.5000000000,	0.0901440317,	-3.0657460793
2481,	1.7500000000,	0.1066207071,	-3.0618575839
2482,	2.0000000000,	0.1114950302,	-3.0607072436
2483,	2.2500000000,	0.1066207071,	-3.0618575839
2484,	2.5000000000,	0.0901440317,	-3.0657460793
2485,	2.7500000000,	0.0480367983,	-3.0756833864
2486,	1.2500000000,	0.0141686521,	-3.0836762689
2487,	1.5000000000,	0.0141686521,	-3.0836762689
2488,	1.7500000000,	0.0141686521,	-3.0836762689
2489,	2.0000000000,	0.0141686521,	-3.0836762689
2490,	2.2500000000,	0.0141686521,	-3.0836762689
2491,	2.5000000000,	0.0141686521,	-3.0836762689
2492,	2.7500000000,	0.0141686521,	-3.0836762689
2493,	1.2500000000,	-0.0196994941,	-3.0916691514
2494,	1.5000000000,	-0.0618067275,	-3.1016064584
2495,	1.7500000000,	-0.0782834030,	-3.1054949539
2496,	2.0000000000,	-0.0831577260,	-3.1066452941
2497,	2.2500000000,	-0.0782834030,	-3.1054949539
2498,	2.5000000000,	-0.0618067275,	-3.1016064584
2499,	2.7500000000,	-0.0196994941,	-3.0916691514
2500,	1.2500000000,	0.0065415994,	-2.9083308486
2501,	1.5000000000,	0.0486488328,	-2.8983935416
2502,	1.7500000000,	0.0651255082,	-2.8945050461
2503,	2.0000000000,	0.0699998313,	-2.8933547059
2504,	2.2500000000,	0.0651255082,	-2.8945050461
2505,	2.5000000000,	0.0486488328,	-2.8983935416
2506,	2.7500000000,	0.0065415994,	-2.9083308486
2507,	1.2500000000,	-0.0273265468,	-2.9163237311
2508,	1.5000000000,	-0.0273265468,	-2.9163237311
2509,	1.7500000000,	-0.0273265468,	-2.9163237311
2510,	2.0000000000,	-0.0273265468,	-2.9163237311
2511,	2.2500000000,	-0.0273265468,	-2.9163237311
2512,	2.5000000000,	-0.0273265468,	-2.9163237311
2513,	2.7500000000,	-0.0273265468,	-2.9163237311
2514,	1.2500000000,	-0.0611946931,	-2.9243166136
2515,	1.5000000000,	-0.1033019264,	-2.9342539207
2516,	1.7500000000,	-0.1197786019,	-2.9381424161
2517,	2.0000000000,	-0.1246529249,	-2.9392927564
2518,	2.2500000000,	-0.1197786019,	-2.9381424161
2519,	2.5000000000,	-0.1033019264,	-2.9342539207
2520,	2.7500000000,	-0.0611946931,	-2.9243166136
2521,	1.2500000000,	-0.0325988895,	-2.7341321353
2522,	1.5000000000,	0.0098777153,	-2.7259158578
2523,	1.7500000000,	0.0264989269,	-2.7227008059
2524,	2.0000000000,	0.0314160083,	-2.7217496916
2525,	2.2500000000,	0.0264989269,	-2.7227008059
2526,	2.5000000000,	0.0098777153,	-2.7259158578
2527,	2.7500000000,	-0.0325988895,	-2.7341321353
2528,	1.2500000000,	-0.0667641326,	-2.7407407407
2529,	1.5000000000,	-0.0667641326,	-2.7407407407
2530,	1.7500000000,	-0.0667641326,	-2.7407407407
2531,	2.0000000000,	-0.0667641326,	-2.7407407407
2532,	2.2500000000,	-0.0667641326,	-2.7407407407
2533,	2.5000000000,	-0.0667641326,	-2.7407407407
2534,	2.7500000000,	-0.0667641326,	-2.7407407407
2535,	1.2500000000,	-0.1009293756,	-2.7473493462
2536,	1.5000000000,	-0.1434059804,	-2.7555656237
2537,	1.7500000000,	-0.1600271920,	-2.7587806756
2538,	2.0000000000,	-0.1649442734,	-2.7597317899
2539,	2.2500000000,	-0.1600271920,	-2.7587806756
2540,	2.5000000000,	-0.1434059804,	-2.7555656237
2541,	2.7500000000,	-0.1009293756,	-2.7473493462
2542,	1.2500000000,	-0.0655090566,	-2.5360710112
2543,	1.5000000000,	-0.0225916144,	-2.5306063680
2544,	1.7500000000,	-0.0057979019,	-2.5284680381
2545,	2.0000000000,	-0.0008297893,	-2.5278354524
2546,	2.2500000000,	-0.0057979019,	-2.5284680381
2547,	2.5000000000,	-0.0225916144,	-2.5306063680
2548,	2.7500000000,	-0.0655090566,	-2.5360710112
2549,	1.2500000000,	-0.1000288788,	-2.5404663923
2550,	1.5000000000,	-0.1000288788,	-2.5404663923
2551,	1.7500000000,	-0.1000288788,	-2.5404663923
2552,	2.0000000000,	-0.1000288788,	-2.5404663923
2553,	2.2500000000,	-0.1000288788,	-2.5404663923
2554,	2.5000000000,	-0.1000288788,	-2.5404663923
2555,	2.7500000000,	-0.1000288788,	-2.5404663923
2556,	1.2500000000,	-0.1345487010,	-2.5448617734
2557,	1.5000000000,	-0.1774661432,	-2.5503264167
2558,	1.7500000000,	-0.1942598556,	-2.5524647465
2559,	2.0000000000,	-0.1992279683,	-2.5530973323
2560,	2.2500000000,	-0.1942598556,	-2.5524647465
2561,	2.5000000000,	-0.1774661432,	-2.5503264167
2562,	2.7500000000,	-0.1345487010,	-2.5448617734
2563,	1.2500000000,	-0.0882661725,	-2.2970118468
2564,	1.5000000000,	-0.0450757525,	-2.2944905786
2565,	1.7500000000,	-0.0281752232,	-2.2935039995
2566,	2.0000000000,	-0.0231755107,	-2.2932121381
2567,	2.2500000000,	-0.0281752232,	-2.2935039995
2568,	2.5000000000,	-0.0450757525,	-2.2944905786
2569,	2.7500000000,	-0.0882661725,	-2.2970118468
2570,	1.2500000000,	-0.1230055592,	-2.2990397805
2571,	1.5000000000,	-0.1230055592,	-2.2990397805
2572,	1.7500000000,	-0.1230055592,	-2.2990397805
2573,	2.0000000000,	-0.1230055592,	-2.2990397805
2574,	2.2500000000,	-0.1230055592,	-2.2990397805
2575,	2.5000000000,	-0.1230055592,	-2.2990397805
2576,	2.7500000000,	-0.1230055592,	-2.2990397805
2577,	1.2500000000,	-0.1577449458,	-2.3010677143
2578,	1.5000000000,	-0.2009353658,	-2.3035889824
2579,	1.7500000000,	-0.2178358952,	-2.3045755616
2580,	2.0000000000,	-0.2228356077,	-2.3048674229
2581,	2.2500000000,	-0.2178358952,	-2.3045755616
2582,	2.5000000000,	-0.2009353658,	-2.3035889824
2583,	2.7500000000,	-0.1577449458,	-2.3010677143
2584,	1.2500000000,	-0.0967804201,	-2.0000000000
2585,	1.5000000000,	-0.0535164724,	-2.0000000000
2586,	1.7500000000,	-0.0365871714,	-2.0000000000
2587,	2.0000000000,	-0.0315789474,	-2.0000000000
2588,	2.2500000000,	-0.0365871714,	-2.0000000000
2589,	2.5000000000,	-0.0535164724,	-2.0000000000
2590,	2.7500000000,	-0.0967804201,	-2.0000000000
2591,	1.2500000000,	-0.1315789474,	-2.0000000000
2592,	1.5000000000,	-0.1315789474,	-2.0000000000
2593,	1.7500000000,	-0.1315789474,	-2.0000000000
2594,	2.0000000000,	-0.1315789474,	-2.0000000000
2595,	2.2500000000,	-0.1315789474,	-2.0000000000
2596,	2.5000000000,	-0.1315789474,	-2.0000000000
2597,	2.7500000000,	-0.1315789474,	-2.0000000000
2598,	1.2500000000,	-0.1663774746,	-2.0000000000
2599,	1.5000000000,	-0.2096414223,	-2.0000000000
2600,	1.7500000000,	-0.2265707233,	-2.0000000000
2601,	2.0000000000,	-0.2315789474,	-2.0000000000
2602,	2.2500000000,	-0.2265707233,	-2.0000000000
2603,	2.5000000000,	-0.2096414223,	-2.0000000000
2604,	2.7500000000,	-0.1663774746,	-2.0000000000
2605,	1.2500000000,	-0.0882661725,	-1.7029881532
2606,	1.5000000000,	-0.0450757525,	-1.7055094214
2607,	1.7500000000,	-0.0281752232,	-1.7064960005
2608,	2.0000000000,	-0.0231755107,	-1.7067878619
2609,	2.2500000000,	-0.0281752232,	-1.7064960005
2610,	2.5000000000,	-0.0450757525,	-1.7055094214
2611,	2.7500000000,	-0.0882661725,	-1.7029881532
2612,	1.2500000000,	-0.1230055592,	-1.7009602195
2613,	1.5000000000,	-0.1230055592,	-1.7009602195
2614,	1.7500000000,	-0.1230055592,	-1.7009602195
2615,	2.0000000000,	-0.1230055592,	-1.7009602195
2616,	2.2500000000,	-0.1230055592,	-1.7009602195
2617,	2.5000000000,	-0.1230055592,	-1.7009602195
2618,	2.7500000000,	-0.1230055592,	-1.7009602195
2619,	1.2500000000,	-0.1577449458,	-1.6989322857
2620,	1.5000000000,	-0.2009353658,	-1.6964110176
2621,	1.7500000000,	-0.2178358952,	-1.6954244384
2622,	2.0000000000,	-0.2228356077,	-1.6951325771
2623,	2.2500000000,	-0.2178358952,	-1.6954244384
2624,	2.5000000000,	-0.2009353658,	-1.6964110176
2625,	2.7500000000,	-0.1577449458,	-1.6989322857
2626,	1.2500000000,	-0.0655090566,	-1.4639289888
2627,	1.5000000000,	-0.0225916144,	-1.4693936320
2628,	1.7500000000,	-0.0057979019,	-1.4715319619
2629,	2.0000000000,	-0.0008297893,	-1.4721645476
2630,	2.2500000000,	-0.0057979019,	-1.4715319619
2631,	2.5000000000,	-0.0225916144,	-1.4693936320
2632,	2.7500000000,	-0.0655090566,	-1.4639289888
2633,	1.2500000000,	-0.1000288788,	-1.4595336077
2634,	1.5000000000,	-0.1000288788,	-1.4595336077
2635,	1.7500000000,	-0.1000288788,	-1.4595336077
2636,	2.0000000000,	-0.1000288788,	-1.4595336077
2637,	2.2500000000,	-0.1000288788,	-1.4595336077
2638,	2.5000000000,	-0.1000288788,	-1.4595336077
2639,	2.7500000000,	-0.1000288788,	-1.4595336077
2640,	1.2500000000,	-0.1345487010,	-1.4551382266
2641,	1.5000000000,	-0.1774661432,	-1.4496735833
2642,	1.7500000000,	-0.1942598556,	-1.4475352535
2643,	2.0000000000,	-0.1992279683,	-1.4469026677
2644,	2.2500000000,	-0.1942598556,	-1.4475352535
2645,	2.5000000000,	-0.1774661432,	-1.4496735833
2646,	2.7500000000,	-0.1345487010,	-1.4551382266
2647,	1.2500000000,	-0.0325988895,	-1.2658678647
2648,	1.5000000000,	0.0098777153,	-1.2740841422
2649,	1.7500000000,	0.0264989269,	-1.2772991941
2650,	2.0000000000,	0.0314160083,	-1.2782503084
2651,	2.2500000000,	0.0264989269,	-1.2772991941
2652,	2.5000000000,	0.0098777153,	-1.2740841422
2653,	2.7500000000,	-0.0325988895,	-1.2658678647
2654,	1.2500000000,	-0.0667641326,	-1.2592592593
2655,	1.5000000000,	-0.0667641326,	-1.2592592593
2656,	1.7500000000,	-0.0667641326,	-1.2592592593
2657,	2.0000000000,	-0.0667641326,	-1.2592592593
2658,	2.2500000000,	-0.0667641326,	-1.2592592593
2659,	2.5000000000,	-0.0667641326,	-1.2592592593
2660,	2.7500000000,	-0.0667641326,	-1.2592592593
2661,	1.2500000000,	-0.1009293756,	-1.2526506538
2662,	1.5000000000,	-0.1434059804,	-1.2444343763
2663,	1.7500000000,	-0.1600271920,	-1.2412193244
2664,	2.0000000000,	-0.1649442734,	-1.2402682101
2665,	2.2500000000,	-0.1600271920,	-1.2412193244
2666,	2.5000000000,	-0.1434059804,	-1.2444343763
2667,	2.7500000000,	-0.1009293756,	-1.2526506538
2668,	1.2500000000,	0.0065415994,	-1.0916691514
2669,	1.5000000000,	0.0486488328,	-1.1016064584
2670,	1.7500000000,	0.0651255082,	-1.1054949539
2671,	2.0000000000,	0.0699998313,	-1.1066452941
2672,	2.2500000000,	0.0651255082,	-1.1054949539
2673,	2.5000000000,	0.0486488328,	-1.1016064584
2674,	2.7500000000,	0.0065415994,	-1.0916691514
2675,	1.2500000000,	-0.0273265468,	-1.0836762689
2676,	1.5000000000,	-0.0273265468,	-1.0836762689
2677,	1.7500000000,	-0.0273265468,	-1.0836762689
2678,	2.0000000000,	-0.0273265468,	-1.0836762689
2679,	2.2500000000,	-0.0273265468,	-1.0836762689
2680,	2.5000000000,	-0.0273265468,	-1.0836762689
2681,	2.7500000000,	-0.0273265468,	-1.0836762689
2682,	1.2500000000,	-0.0611946931,	-1.0756833864
2683,	1.5000000000,	-0.1033019264,	-1.0657460793
2684,	1.7500000000,	-0.1197786019,	-1.0618575839
2685,	2.0000000000,	-0.1246529249,	-1.0607072436
2686,	2.2500000000,	-0.1197786019,	-1.0618575839
2687,	2.5000000000,	-0.1033019264,	-1.0657460793
2688,	2.7500000000,	-0.0611946931,	-1.0756833864
2689,	1.2500000000,	0.0480367983,	-0.9243166136
2690,	1.5000000000,	0.0901440317,	-0.9342539207
2691,	1.7500000000,	0.1066207071,	-0.9381424161
2692,	2.0000000000,	0.1114950302,	-0.9392927564
2693,	2.2500000000,	0.1066207071,	-0.9381424161
2694,	2.5000000000,	0.0901440317,	-0.9342539207
2695,	2.7500000000,	0.0480367983,	-0.9243166136
2696,	1.2500000000,	0.0141686521,	-0.9163237311
2697,	1.5000000000,	0.0141686521,	-0.9163237311
2698,	1.7500000000,	0.0141686521,	-0.9163237311
2699,	2.0000000000,	0.0141686521,	-0.9163237311
2700,	2.2500000000,	0.0141686521,	-0.9163237311
2701,	2.5000000000,	0.0141686521,	-0.9163237311
2702,	2.7500000000,	0.0141686521,	-0.9163237311
2703,	1.2500000000,	-0.0196994941,	-0.9083308486
2704,	1.5000000000,	-0.0618067275,	-0.8983935416
2705,	1.7500000000,	-0.0782834030,	-0.8945050461
2706,	2.0000000000,	-0.0831577260,	-0.8933547059
2707,	2.2500000000,	-0.0782834030,	-0.8945050461
2708,	2.5000000000,	-0.0618067275,	-0.8983935416
2709,	2.7500000000,	-0.0196994941,	-0.9083308486
2710,	1.2500000000,	0.0877714809,	-0.7473493462
2711,	1.5000000000,	0.1302480857,	-0.7555656237
2712,	1.7500000000,	0.1468692972,	-0.7587806756
2713,	2.0000000000,	0.1517863786,	-0.7597317899
2714,	2.2500000000,	0.1468692972,	-0.7587806756
2715,	2.5000000000,	0.1302480857,	-0.7555656237
2716,	2.7500000000,	0.0877714809,	-0.7473493462
2717,	1.2500000000,	0.0536062378,	-0.7407407407
2718,	1.5000000000,	0.0536062378,	-0.7407407407
2719,	1.7500000000,	0.0536062378,	-0.7407407407
2720,	2.0000000000,	0.0536062378,	-0.7407407407
2721,	2.2500000000,	0.0536062378,	-0.7407407407
2722,	2.5000000000,	0.0536062378,	-0.7407407407
2723,	2.7500000000,	0.0536062378,	-0.7407407407
2724,	1.2500000000,	0.0194409947,	-0.7341321353
2725,	1.5000000000,	-0.0230356101,	-0.7259158578
2726,	1.7500000000,	-0.0396568216,	-0.7227008059
2727,	2.0000000000,	-0.0445739030,	-0.7217496916
2728,	2.2500000000,	-0.0396568216,	-0.7227008059
2729,	2.5000000000,	-0.0230356101,	-0.7259158578
2730,	2.7500000000,	0.0194409947,	-0.7341321353
2731,	1.2500000000,	0.1213908062,	-0.5448617734
2732,	1.5000000000,	0.1643082485,	-0.5503264167
2733,	1.7500000000,	0.1811019609,	-0.5524647465
2734,	2.0000000000,	0.1860700735,	-0.5530973323
2735,	2.2500000000,	0.1811019609,	-0.5524647465
2736,	2.5000000000,	0.1643082485,	-0.5503264167
2737,	2.7500000000,	0.1213908062,	-0.5448617734
2738,	1.2500000000,	0.0868709840,	-0.5404663923
2739,	1.5000000000,	0.0868709840,	-0.5404663923
2740,	1.7500000000,	0.0868709840,	-0.5404663923
2741,	2.0000000000,	0.0868709840,	-0.5404663923
2742,	2.2500000000,	0.0868709840,	-0.5404663923
2743,	2.5000000000,	0.0868709840,	-0.5404663923
2744,	2.7500000000,	0.0868709840,	-0.5404663923
2745,	1.2500000000,	0.0523511618,	-0.5360710112
2746,	1.5000000000,	0.0094337196,	-0.5306063680
2747,	1.7500000000,	-0.0073599928,	-0.5284680381
2748,	2.0000000000,	-0.0123281054,	-0.5278354524
2749,	2.2500000000,	-0.0073599928,	-0.5284680381
2750,	2.5000000000,	0.0094337196,	-0.5306063680
2751,	2.7500000000,	0.0523511618,	-0.5360710112
2752,	1.2500000000,	0.1445870511,	-0.3010677143
2753,	1.5000000000,	0.1877774711,	-0.3035889824
2754,	1.7500000000,	0.2046780004,	-0.3045755616
2755,	2.0000000000,	0.2096777129,	-0.3048674229
2756,	2.2500000000,	0.2046780004,	-0.3045755616
2757,	2.5000000000,	0.1877774711,	-0.3035889824
2758,	2.7500000000,	0.1445870511,	-0.3010677143
2759,	1.2500000000,	0.1098476644,	-0.2990397805
2760,	1.5000000000,	0.1098476644,	-0.2990397805
2761,	1.7500000000,	0.1098476644,	-0.2990397805
2762,	2.0000000000,	0.1098476644,	-0.2990397805
2763,	2.2500000000,	0.1098476644,	-0.2990397805
2764,	2.5000000000,	0.1098476644,	-0.2990397805
2765,	2.7500000000,	0.1098476644,	-0.2990397805
2766,	1.2500000000,	0.0751082778,	-0.2970118468
2767,	1.5000000000,	0.0319178578,	-0.2944905786
2768,	1.7500000000,	0.0150173284,	-0.2935039995
2769,	2.0000000000,	0.0100176159,	-0.2932121381
2770,	2.2500000000,	0.0150173284,	-0.2935039995
2771,	2.5000000000,	0.0319178578,	-0.2944905786
2772,	2.7500000000,	0.0751082778,	-0.2970118468
2773,	1.2500000000,	0.1532195799,	-0.0000000000
2774,	1.5000000000,	0.1964835276,	-0.0000000000
2775,	1.7500000000,	0.2134128286,	-0.0000000000
2776,	2.0000000000,	0.2184210526,	-0.0000000000
2777,	2.2500000000,	0.2134128286,	-0.0000000000
2778,	2.5000000000,	0.1964835276,	-0.0000000000
2779,	2.7500000000,	0.1532195799,	-0.0000000000
2780,	1.2500000000,	0.1184210526,	-0.0000000000
2781,	1.5000000000,	0.1184210526,	-0.0000000000
2782,	1.7500000000,	0.1184210526,	-0.0000000000
2783,	2.0000000000,	0.1184210526,	-0.0000000000
2784,	2.2500000000,	0.1184210526,	-0.0000000000
2785,	2.5000000000,	0.1184210526,	-0.0000000000
2786,	2.7500000000,	0.1184210526,	-0.0000000000
2787,	1.2500000000,	0.0836225254,	-0.0000000000
2788,	1.5000000000,	0.0403585777,	-0.0000000000
2789,	1.7500000000,	0.0234292767,	-0.0000000000
2790,	2.0000000000,	0.0184210526,	-0.0000000000
2791,	2.2500000000,	0.0234292767,	-0.0000000000
2792,	2.5000000000,	0.0403585777,	-0.0000000000
2793,	2.7500000000,	0.0836225254,	-0.0000000000
2794,	1.2500000000,	0.1532195799,	-0.0000000000
2795,	1.5000000000,	0.1964835276,	-0.0000000000
2796,	1.7500000000,	0.2134128286,	-0.0000000000
2797,	2.0000000000,	0.2184210526,	-0.0000000000
2798,	2.2500000000,	0.2134128286,	-0.0000000000
2799,	2.5000000000,	0.1964835276,	-0.0000000000
2800,	2.7500000000,	0.1532195799,	-0.0000000000
2801,	1.2500000000,	0.1184210526,	-0.0000000000
2802,	1.5000000000,	0.1184210526,	-0.0000000000
2803,	1.7500000000,	0.1184210526,	-0.0000000000
2804,	2.0000000000,	0.1184210526,	-0.0000000000
2805,	2.2500000000,	0.1184210526,	-0.0000000000
2806,	2.5000000000,	0.1184210526,	-0.0000000000
2807,	2.7500000000,	0.1184210526,	-0.0000000000
2808,	1.2500000000,	0.0836225254,	-0.0000000000
2809,	1.5000000000,	0.0403585777,	-0.0000000000
2810,	1.7500000000,	0.0234292767,	-0.0000000000
2811,	2.0000000000,	0.0184210526,	-0.0000000000
2812,	2.2500000000,	0.0234292767,	-0.0000000000
2813,	2.5000000000,	0.0403585777,	-0.0000000000
2814,	2.7500000000,	0.0836225254,	-0.0000000000
2815,	1.2500000000,	0.1445870511,	0.3010677143
2816,	1.5000000000,	0.1877774711,	0.3035889824
2817,	1.7500000000,	0.2046780004,	0.3045755616
2818,	2.0000000000,	0.2096777129,	0.3048674229
2819,	2.2500000000,	0.2046780004,	0.3045755616
2820,	2.5000000000,	0.1877774711,	0.3035889824
2821,	2.7500000000,	0.1445870511,	0.3010677143
2822,	1.2500000000,	0.1098476644,	0.2990397805
2823,	1.5000000000,	0.1098476644,	0.2990397805
2824,	1.7500000000,	0.1098476644,	0.2990397805
2825,	2.0000000000,	0.1098476644,	0.2990397805
2826,	2.2500000000,	0.1098476644,	0.2990397805
2827,	2.5000000000,	0.1098476644,	0.2990397805
2828,	2.7500000000,	0.1098476644,	0.2990397805
2829,	1.2500000000,	0.0751082778,	0.2970118468
2830,	1.5000000000,	0.0319178578,	0.2944905786
2831,	1.7500000000,	0.0150173284,	0.2935039995
2832,	2.0000000000,	0.0100176159,	0.2932121381
2833,	2.2500000000,	0.0150173284,	0.2935039995
2834,	2.5000000000,	0.0319178578,	0.2944905786
2835,	2.7500000000,	0.0751082778,	0.2970118468
2836,	1.2500000000,	0.1213908062,	0.5448617734
2837,	1.5000000000,	0.1643082485,	0.5503264167
2838,	1.7500000000,	0.1811019609,	0.5524647465
2839,	2.0000000000,	0.1860700735,	0.5530973323
2840,	2.2500000000,	0.1811019609,	0.5524647465
2841,	2.5000000000,	0.1643082485,	0.5503264167
2842,	2.7500000000,	0.1213908062,	0.5448617734
2843,	1.2500000000,	0.0868709840,	0.5404663923
2844,	1.5000000000,	0.0868709840,	0.5404663923
2845,	1.7500000000,	0.0868709840,	0.5404663923
2846,	2.0000000000,	0.0868709840,	0.5404663923
2847,	2.2500000000,	0.0868709840,	0.5404663923
2848,	2.5000000000,	0.0868709840,	0.5404663923
2849,	2.7500000000,	0.0868709840,	0.5404663923
2850,	1.2500000000,	0.0523511618,	0.5360710112
2851,	1.5000000000,	0.0094337196,	0.5306063680
2852,	1.7500000000,	-0.0073599928,	0.5284680381
2853,	2.0000000000,	-0.0123281054,	0.5278354524
2854,	2.2500000000,	-0.0073599928,	0.5284680381
2855,	2.5000000000,	0.0094337196,	0.5306063680
2856,	2.7500000000,	0.0523511618,	0.5360710112
2857,	1.2500000000,	0.0877714809,	0.7473493462
2858,	1.5000000000,	0.1302480857,	0.7555656237
2859,	1.7500000000,	0.1468692972,	0.7587806756
2860,	2.0000000000,	0.1517863786,	0.7597317899
2861,	2.2500000000,	0.1468692972,	0.7587806756
2862,	2.5000000000,	0.1302480857,	0.7555656237
2863,	2.7500000000,	0.0877714809,	0.7473493462
2864,	1.2500000000,	0.0536062378,	0.7407407407
2865,	1.5000000000,	0.0536062378,	0.7407407407
2866,	1.7500000000,	0.0536062378,	0.7407407407
2867,	2.0000000000,	0.0536062378,	0.7407407407
2868,	2.2500000000,	0.0536062378,	0.7407407407
2869,	2.5000000000,	0.0536062378,	0.7407407407
2870,	2.7500000000,	0.0536062378,	0.7407407407
2871,	1.2500000000,	0.0194409947,	0.7341321353
2872,	1.5000000000,	-0.0230356101,	0.7259158578
2873,	1.7500000000,	-0.0396568216,	0.7227008059
2874,	2.0000000000,	-0.0445739030,	0.7217496916
2875,	2.2500000000,	-0.0396568216,	0.7227008059
2876,	2.5000000000,	-0.0230356101,	0.7259158578
2877,	2.7500000000,	0.0194409947,	0.7341321353
2878,	1.2500000000,	0.0480367983,	0.9243166136
2879,	1.5000000000,	0.0901440317,	0.9342539207
2880,	1.7500000000,	0.1066207071,	0.9381424161
2881,	2.0000000000,	0.1114950302,	0.9392927564
2882,	2.2500000000,	0.1066207071,	0.9381424161
2883,	2.5000000000,	0.0901440317,	0.9342539207
2884,	2.7500000000,	0.0480367983,	0.9243166136
2885,	1.2500000000,	0.0141686521,	0.9163237311
2886,	1.5000000000,	0.0141686521,	0.9163237311
2887,	1.7500000000,	0.0141686521,	0.9163237311
2888,	2.0000000000,	0.0141686521,	0.9163237311
2889,	2.2500000000,	0.0141686521,	0.9163237311
2890,	2.5000000000,	0.0141686521,	0.9163237311
2891,	2.7500000000,	0.0141686521,	0.9163237311
2892,	1.2500000000,	-0.0196994941,	0.9083308486
2893,	1.5000000000,	-0.0618067275,	0.8983935416
2894,	1.7500000000,	-0.0782834030,	0.8945050461
2895,	2.0000000000,	-0.0831577260,	0.8933547059
2896,	2.2500000000,	-0.0782834030,	0.8945050461
2897,	2.5000000000,	-0.0618067275,	0.8983935416
2898,	2.7500000000,	-0.0196994941,	0.9083308486
2899,	1.2500000000,	0.0065415994,	1.0916691514
2900,	1.5000000000,	0.0486488328,	1.1016064584
2901,	1.7500000000,	0.0651255082,	1.1054949539
2902,	2.0000000000,	0.0699998313,	1.1066452941
2903,	2.2500000000,	0.0651255082,	1.1054949539
2904,	2.5000000000,	0.0486488328,	1.1016064584
2905,	2.7500000000,	0.0065415994,	1.0916691514
2906,	1.2500000000,	-0.0273265468,	1.0836762689
2907,	1.5000000000,	-0.0273265468,	1.0836762689
2908,	1.7500000000,	-0.0273265468,	1.0836762689
2909,	2.0000000000,	-0.0273265468,	1.0836762689
2910,	2.2500000000,	-0.0273265468,	1.0836762689
2911,	2.5000000000,	-0.0273265468,	1.0836762689
2912,	2.7500000000,	-0.0273265468,	1.0836762689
2913,	1.2500000000,	-0.0611946931,	1.0756833864
2914,	1.5000000000,	-0.1033019264,	1.0657460793
2915,	1.7500000000,	-0.1197786019,	1.0618575839
2916,	2.0000000000,	-0.1246529249,	1.0607072436
2917,	2.2500000000,	-0.1197786019,	1.0618575839
2918,	2.5000000000,	-0.1033019264,	1.0657460793
2919,	2.7500000000,	-0.0611946931,	1.0756833864
2920,	1.2500000000,	-0.0325988895,	1.2658678647
2921,	1.5000000000,	0.0098777153,	1.2740841422
2922,	1.7500000000,	0.0264989269,	1.2772991941
2923,	2.0000000000,	0.0314160083,	1.2782503084
2924,	2.2500000000,	0.0264989269,	1.2772991941
2925,	2.5000000000,	0.0098777153,	1.2740841422
2926,	2.7500000000,	-0.0325988895,	1.2658678647
2927,	1.2500000000,	-0.0667641326,	1.2592592593
2928,	1.5000000000,	-0.0667641326,	1.2592592593
2929,	1.7500000000,	-0.0667641326,	1.2592592593
2930,	2.0000000000,	-0.0667641326,	1.2592592593
2931,	2.2500000000,	-0.0667641326,	1.2592592593
2932,	2.5000000000,	-0.0667641326,	1.2592592593
2933,	2.7500000000,	-0.0667641326,	1.2592592593
2934,	1.2500000000,	-0.1009293756,	1.2526506538
2935,	1.5000000000,	-0.1434059804,	1.2444343763
2936,	1.7500000000,	-0.1600271920,	1.2412193244
2937,	2.0000000000,	-0.1649442734,	1.2402682101
2938,	2.2500000000,	-0.1600271920,	1.2412193244
2939,	2.5000000000,	-0.1434059804,	1.2444343763
2940,	2.7500000000,	-0.1009293756,	1.2526506538
2941,	1.2500000000,	-0.0655090566,	1.4639289888
2942,	1.5000000000,	-0.0225916144,	1.4693936320
2943,	1.7500000000,	-0.0057979019,	1.4715319619
2944,	2.0000000000,	-0.0008297893,	1.4721645476
2945,	2.2500000000,	-0.0057979019,	1.4715319619
2946,	2.5000000000,	-0.0225916144,	1.4693936320
2947,	2.7500000000,	-0.0655090566,	1.4639289888
2948,	1.2500000000,	-0.1000288788,	1.4595336077
2949,	1.5000000000,	-0.1000288788,	1.4595336077
2950,	1.7500000000,	-0.1000288788,	1.4595336077
2951,	2.0000000000,	-0.1000288788,	1.4595336077
2952,	2.2500000000,	-0.1000288788,	1.4595336077
2953,	2.5000000000,	-0.1000288788,	1.4595336077
2954,	2.7500000000,	-0.1000288788,	1.4595336077
2955,	1.2500000000,	-0.1345487010,	1.4551382266
2956,	1.5000000000,	-0.1774661432,	1.4496735833
2957,	1.7500000000,	-0.1942598556,	1.4475352535
2958,	2.0000000000,	-0.1992279683,	1.4469026677
2959,	2.2500000000,	-0.1942598556,	1.4475352535
2960,	2.5000000000,	-0.1774661432,	1.4496735833
2961,	2.7500000000,	-0.1345487010,	1.4551382266
2962,	1.2500000000,	-0.0882661725,	1.7029881532
2963,	1.5000000000,	-0.0450757525,	1.7055094214
2964,	1.7500000000,	-0.0281752232,	1.7064960005
2965,	2.0000000000,	-0.0231755107,	1.7067878619
2966,	2.2500000000,	-0.0281752232,	1.7064960005
2967,	2.5000000000,	-0.0450757525,	1.7055094214
2968,	2.7500000000,	-0.0882661725,	1.7029881532
2969,	1.2500000000,	-0.1230055592,	1.7009602195
2970,	1.5000000000,	-0.1230055592,	1.7009602195
2971,	1.7500000000,	-0.1230055592,	1.7009602195
2972,	2.0000000000,	-0.1230055592,	1.7009602195
2973,	2.2500000000,	-0.1230055592,	1.7009602195
2974,	2.5000000000,	-0.1230055592,	1.7009602195
2975,	2.7500000000,	-0.1230055592,	1.7009602195
2976,	1.2500000000,	-0.1577449458,	1.6989322857
2977,	1.5000000000,	-0.2009353658,	1.6964110176
2978,	1.7500000000,	-0.2178358952,	1.6954244384
2979,	2.0000000000,	-0.2228356077,	1.6951325771
2980,	2.2500000000,	-0.2178358952,	1.6954244384
2981,	2.5000000000,	-0.2009353658,	1.6964110176
2982,	2.7500000000,	-0.1577449458,	1.6989322857
2983,	1.2500000000,	-0.0967804201,	2.0000000000
2984,	1.5000000000,	-0.0535164724,	2.0000000000
2985,	1.7500000000,	-0.0365871714,	2.0000000000
2986,	2.0000000000,	-0.0315789474,	2.0000000000
2987,	2.2500000000,	-0.0365871714,	2.0000000000
2988,	2.5000000000,	-0.0535164724,	2.0000000000
2989,	2.7500000000,	-0.0967804201,	2.0000000000
2990,	1.2500000000,	-0.1315789474,	2.0000000000
2991,	1.5000000000,	-0.1315789474,	2.0000000000
2992,	1.7500000000,	-0.1315789474,	2.0000000000
2993,	2.0000000000,	-0.1315789474,	2.0000000000
2994,	2.2500000000,	-0.1315789474,	2.0000000000
2995,	2.5000000000,	-0.1315789474,	2.0000000000
2996,	2.7500000000,	-0.1315789474,	2.0000000000
2997,	1.2500000000,	-0.1663774746,	2.0000000000
2998,	1.5000000000,	-0.2096414223,	2.0000000000
2999,	1.7500000000,	-0.2265707233,	2.0000000000
3000,	2.0000000000,	-0.2315789474,	2.0000000000
3001,	2.2500000000,	-0.2265707233,	2.0000000000
3002,	2.5000000000,	-0.2096414223,	2.0000000000
3003,	2.7500000000,	-0.1663774746,	2.0000000000
3004,	1.2500000000,	-0.0882661725,	2.2970118468
3005,	1.5000000000,	-0.0450757525,	2.2944905786
3006,	1.7500000000,	-0.0281752232,	2.2935039995
3007,	2.0000000000,	-0.0231755107,	2.2932121381
3008,	2.2500000000,	-0.0281752232,	2.2935039995
3009,	2.5000000000,	-0.0450757525,	2.2944905786
3010,	2.7500000000,	-0.0882661725,	2.2970118468
3011,	1.2500000000,	-0.1230055592,	2.2990397805
3012,	1.5000000000,	-0.1230055592,	2.2990397805
3013,	1.7500000000,	-0.1230055592,	2.2990397805
3014,	2.0000000000,	-0.1230055592,	2.2990397805
3015,	2.2500000000,	-0.1230055592,	2.2990397805
3016,	2.5000000000,	-0.1230055592,	2.2990397805
3017,	2.7500000000,	-0.1230055592,	2.2990397805
3018,	1.2500000000,	-0.1577449458,	2.3010677143
3019,	1.5000000000,	-0.2009353658,	2.3035889824
3020,	1.7500000000,	-0.2178358952,	2.3045755616
3021,	2.0000000000,	-0.2228356077,	2.3048674229
3022,	2.2500000000,	-0.2178358952,	2.3045755616
3023,	2.5000000000,	-0.2009353658,	2.3035889824
3024,	2.7500000000,	-0.1577449458,	2.3010677143
3025,	1.2500000000,	-0.0655090566,	2.5360710112
3026,	1.5000000000,	-0.0225916144,	2.5306063680
3027,	1.7500000000,	-0.0057979019,	2.5284680381
3028,	2.0000000000,	-0.0008297893,	2.5278354524
3029,	2.2500000000,	-0.0057979019,	2.5284680381
3030,	2.5000000000,	-0.0225916144,	2.5306063680
3031,	2.7500000000,	-0.0655090566,	2.5360710112
3032,	1.2500000000,	-0.1000288788,	2.5404663923
3033,	1.5000000000,	-0.1000288788,	2.5404663923
3034,	1.7500000000,	-0.1000288788,	2.5404663923
3035,	2.0000000000,	-0.1000288788,	2.5404663923
3036,	2.2500000000,	-0.1000288788,	2.5404663923
3037,	2.5000000000,	-0.1000288788,	2.5404663923
3038,	2.7500000000,	-0.1000288788,	2.5404663923
3039,	1.2500000000,	-0.1345487010,	2.5448617734
3040,	1.5000000000,	-0.1774661432,	2.5503264167
3041,	1.7500000000,	-0.1942598556,	2.5524647465
3042,	2.0000000000,	-0.1992279683,	2.5530973323
3043,	2.2500000000,	-0.1942598556,	2.5524647465
3044,	2.5000000000,	-0.1774661432,	2.5503264167
3045,	2.7500000000,	-0.1345487010,	2.5448617734
3046,	1.2500000000,	-0.0325988895,	2.7341321353
3047,	1.5000000000,	0.0098777153,	2.7259158578
3048,	1.7500000000,	0.0264989269,	2.7227008059
3049,	2.0000000000,	0.0314160083,	2.7217496916
3050,	2.2500000000,	0.0264989269,	2.7227008059
3051,	2.5000000000,	0.0098777153,	2.7259158578
3052,	2.7500000000,	-0.0325988895,	2.7341321353
3053,	1.2500000000,	-0.0667641326,	2.7407407407
3054,	1.5000000000,	-0.0667641326,	2.7407407407
3055,	1.7500000000,	-0.0667641326,	2.7407407407
3056,	2.0000000000,	-0.0667641326,	2.7407407407
3057,	2.2500000000,	-0.0667641326,	2.7407407407
3058,	2.5000000000,	-0.0667641326,	2.7407407407
3059,	2.7500000000,	-0.0667641326,	2.7407407407
3060,	1.2500000000,	-0.1009293756,	2.7473493462
3061,	1.5000000000,	-0.1434059804,	2.7555656237
3062,	1.7500000000,	-0.1600271920,	2.7587806756
3063,	2.0000000000,	-0.1649442734,	2.7597317899
3064,	2.2500000000,	-0.1600271920,	2.7587806756
3065,	2.5000000000,	-0.1434059804,	2.7555656237
3066,	2.7500000000,	-0.1009293756,	2.7473493462
3067,	1.2500000000,	0.0065415994,	2.9083308486
3068,	1.5000000000,	0.0486488328,	2.8983935416
3069,	1.7500000000,	0.0651255082,	2.8945050461
3070,	2.0000000000,	0.0699998313,	2.8933547059
3071,	2.2500000000,	0.0651255082,	2.8945050461
3072,	2.5000000000,	0.0486488328,	2.8983935416
3073,	2.7500000000,	0.0065415994,	2.9083308486
3074,	1.2500000000,	-0.0273265468,	2.9163237311
3075,	1.5000000000,	-0.0273265468,	2.9163237311
3076,	1.7500000000,	-0.0273265468,	2.9163237311
3077,	2.0000000000,	-0.0273265468,	2.9163237311
3078,	2.2500000000,	-0.0273265468,	2.9163237311
3079,	2.5000000000,	-0.0273265468,	2.9163237311
3080,	2.7500000000,	-0.0273265468,	2.9163237311
3081,	1.2500000000,	-0.0611946931,	2.9243166136
3082,	1.5000000000,	-0.1033019264,	2.9342539207
3083,	1.7500000000,	-0.1197786019,	2.9381424161
3084,	2.0000000000,	-0.1246529249,	2.9392927564
3085,	2.2500000000,	-0.1197786019,	2.9381424161
3086,	2.5000000000,	-0.1033019264,	2.9342539207
3087,	2.7500000000,	-0.0611946931,	2.9243166136
3088,	1.2500000000,	0.0480367983,	3.0756833864
3089,	1.5000000000,	0.0901440317,	3.0657460793
3090,	1.7500000000,	0.1066207071,	3.0618575839
3091,	2.0000000000,	0.1114950302,	3.0607072436
3092,	2.2500000000,	0.1066207071,	3.0618575839
3093,	2.5000000000,	0.0901440317,	3.0657460793
3094,	2.7500000000,	0.0480367983,	3.0756833864
3095,	1.2500000000,	0.0141686521,	3.0836762689
3096,	1.5000000000,	0.0141686521,	3.0836762689
3097,	1.7500000000,	0.0141686521,	3.0836762689
3098,	2.0000000000,	0.0141686521,	3.0836762689
3099,	2.2500000000,	0.0141686521,	3.0836762689
3100,	2.5000000000,	0.0141686521,	3.0836762689
3101,	2.7500000000,	0.0141686521,	3.0836762689
3102,	1.2500000000,	-0.0196994941,	3.0916691514
3103,	1.5000000000,	-0.0618067275,	3.1016064584
3104,	1.7500000000,	-0.0782834030,	3.1054949539
3105,	2.0000000000,	-0.0831577260,	3.1066452941
3106,	2.2500000000,	-0.0782834030,	3.1054949539
3107,	2.5000000000,	-0.0618067275,	3.1016064584
3108,	2.7500000000,	-0.0196994941,	3.0916691514
3109,	1.2500000000,	0.0877714809,	3.2526506538
3110,	1.5000000000,	0.1302480857,	3.2444343763
3111,	1.7500000000,	0.1468692972,	3.2412193244
3112,	2.0000000000,	0.1517863786,	3.2402682101
3113,	2.2500000000,	0.1468692972,	3.2412193244
3114,	2.5000000000,	0.1302480857,	3.2444343763
3115,	2.7500000000,	0.0877714809,	3.2526506538
3116,	1.2500000000,	0.0536062378,	3.2592592593
3117,	1.5000000000,	0.0536062378,	3.2592592593
3118,	1.7500000000,	0.0536062378,	3.2592592593
3119,	2.0000000000,	0.0536062378,	3.2592592593
3120,	2.2500000000,	0.0536062378,	3.2592592593
3121,	2.5000000000,	0.0536062378,	3.2592592593
3122,	2.7500000000,	0.0536062378,	3.2592592593
3123,	1.2500000000,	0.0194409947,	3.2658678647
3124,	1.5000000000,	-0.0230356101,	3.2740841422
3125,	1.7500000000,	-0.0396568216,	3.2772991941
3126,	2.0000000000,	-0.0445739030,	3.2782503084
3127,	2.2500000000,	-0.0396568216,	3.2772991941
3128,	2.5000000000,	-0.0230356101,	3.2740841422
3129,	2.7500000000,	0.0194409947,	3.2658678647
3130,	1.2500000000,	0.1213908062,	3.4551382266
3131,	1.5000000000,	0.1643082485,	3.4496735833
3132,	1.7500000000,	0.1811019609,	3.4475352535
3133,	2.0000000000,	0.1860700735,	3.4469026677
3134,	2.2500000000,	0.1811019609,	3.4475352535
3135,	2.5000000000,	0.1643082485,	3.4496735833
3136,	2.7500000000,	0.1213908062,	3.4551382266
3137,	1.2500000000,	0.0868709840,	3.4595336077
3138,	1.5000000000,	0.0868709840,	3.4595336077
3139,	1.7500000000,	0.0868709840,	3.4595336077
3140,	2.0000000000,	0.0868709840,	3.4595336077
3141,	2.2500000000,	0.0868709840,	3.4595336077
3142,	2.5000000000,	0.0868709840,	3.4595336077
3143,	2.7500000000,	0.0868709840,	3.4595336077
3144,	1.2500000000,	0.0523511618,	3.4639289888
3145,	1.5000000000,	0.0094337196,	3.4693936320
3146,	1.7500000000,	-0.0073599928,	3.4715319619
3147,	2.0000000000,	-0.0123281054,	3.4721645476
3148,	2.2500000000,	-0.0073599928,	3.4715319619
3149,	2.5000000000,	0.0094337196,	3.4693936320
3150,	2.7500000000,	0.0523511618,	3.4639289888
3151,	1.2500000000,	0.1445870511,	3.6989322857
3152,	1.5000000000,	0.1877774711,	3.6964110176
3153,	1.7500000000,	0.2046780004,	3.6954244384
3154,	2.0000000000,	0.2096777129,	3.6951325771
3155,	2.2500000000,	0.2046780004,	3.6954244384
3156,	2.5000000000,	0.1877774711,	3.6964110176
3157,	2.7500000000,	0.1445870511,	3.6989322857
3158,	1.2500000000,	0.1098476644,	3.7009602195
3159,	1.5000000000,	0.1098476644,	3.7009602195
3160,	1.7500000000,	0.1098476644,	3.7009602195
3161,	2.0000000000,	0.1098476644,	3.7009602195
3162,	2.2500000000,	0.1098476644,	3.7009602195
3163,	2.5000000000,	0.1098476644,	3.7009602195
3164,	2.7500000000,	0.1098476644,	3.7009602195
3165,	1.2500000000,	0.0751082778,	3.7029881532
3166,	1.5000000000,	0.0319178578,	3.7055094214
3167,	1.7500000000,	0.0150173284,	3.7064960005
3168,	2.0000000000,	0.0100176159,	3.7067878619
3169,	2.2500000000,	0.0150173284,	3.7064960005
3170,	2.5000000000,	0.0319178578,	3.7055094214
3171,	2.7500000000,	0.0751082778,	3.7029881532
3172,	1.2500000000,	0.1532195799,	4.0000000000
3173,	1.5000000000,	0.1964835276,	4.0000000000
3174,	1.7500000000,	0.2134128286,	4.0000000000
3175,	2.0000000000,	0.2184210526,	4.0000000000
3176,	2.2500000000,	0.2134128286,	4.0000000000
3177,	2.5000000000,	0.1964835276,	4.0000000000
3178,	2.7500000000,	0.1532195799,	4.0000000000
3179,	1.2500000000,	0.1184210526,	4.0000000000
3180,	1.5000000000,	0.1184210526,	4.0000000000
3181,	1.7500000000,	0.1184210526,	4.0000000000
3182,	2.0000000000,	0.1184210526,	4.0000000000
3183,	2.2500000000,	0.1184210526,	4.0000000000
3184,	2.5000000000,	0.1184210526,	4.0000000000
3185,	2.7500000000,	0.1184210526,	4.0000000000
3186,	1.2500000000,	0.0836225254,	4.0000000000
3187,	1.5000000000,	0.0403585777,	4.0000000000
3188,	1.7500000000,	0.0234292767,	4.0000000000
3189,	2.0000000000,	0.0184210526,	4.0000000000
3190,	2.2500000000,	0.0234292767,	4.0000000000
3191,	2.5000000000,	0.0403585777,	4.0000000000
3192,	2.7500000000,	0.0836225254,	4.0000000000
3193,	3.2500000000,	-0.0836225254,	-4.0000000000
3194,	3.5000000000,	-0.0403585777,	-4.0000000000
3195,	3.7500000000,	-0.0234292767,	-4.0000000000
3196,	4.0000000000,	-0.0184210526,	-4.0000000000
3197,	4.2500000000,	-0.0234292767,	-4.0000000000
3198,	4.5000000000,	-0.0403585777,	-4.0000000000
3199,	4.7500000000,	-0.0836225254,	-4.0000000000
3200,	3.2500000000,	-0.1184210526,	-4.0000000000
3201,	3.5000000000,	-0.1184210526,	-4.0000000000
3202,	3.7500000000,	-0.1184210526,	-4.0000000000
3203,	4.0000000000,	-0.1184210526,	-4.0000000000
3204,	4.2500000000,	-0.1184210526,	-4.0000000000
3205,	4.5000000000,	-0.1184210526,	-4.0000000000
3206,	4.7500000000,	-0.1184210526,	-4.0000000000
3207,	3.2500000000,	-0.1532195799,	-4.0000000000
3208,	3.5000000000,	-0.1964835276,	-4.0000000000
3209,	3.7500000000,	-0.2134128286,	-4.0000000000
3210,	4.0000000000,	-0.2184210526,	-4.0000000000
3211,	4.2500000000,	-0.2134128286,	-4.0000000000
3212,	4.5000000000,	-0.1964835276,	-4.0000000000
3213,	4.7500000000,	-0.1532195799,	-4.0000000000
3214,	3.2500000000,	-0.0751082778,	-3.7029881532
3215,	3.5000000000,	-0.0319178578,	-3.7055094214
3216,	3.7500000000,	-0.0150173284,	-3.7064960005
3217,	4.0000000000,	-0.0100176159,	-3.7067878619
3218,	4.2500000000,	-0.0150173284,	-3.7064960005
3219,	4.5000000000,	-0.0319178578,	-3.7055094214
3220,	4.7500000000,	-0.0751082778,	-3.7029881532
3221,	3.2500000000,	-0.1098476644,	-3.7009602195
3222,	3.5000000000,	-0.1098476644,	-3.7009602195
3223,	3.7500000000,	-0.1098476644,	-3.7009602195
3224,	4.0000000000,	-0.1098476644,	-3.7009602195
3225,	4.2500000000,	-0.1098476644,	-3.7009602195
3226,	4.5000000000,	-0.1098476644,	-3.7009602195
3227,	4.7500000000,	-0.1098476644,	-3.7009602195
3228,	3.2500000000,	-0.1445870511,	-3.6989322857
3229,	3.5000000000,	-0.1877774711,	-3.6964110176
3230,	3.7500000000,	-0.2046780004,	-3.6954244384
3231,	4.0000000000,	-0.2096777129,	-3.6951325771
3232,	4.2500000000,	-0.2046780004,	-3.6954244384
3233,	4.5000000000,	-0.1877774711,	-3.6964110176
3234,	4.7500000000,	-0.1445870511,	-3.6989322857
3235,	3.2500000000,	-0.0523511618,	-3.4639289888
3236,	3.5000000000,	-0.0094337196,	-3.4693936320
3237,	3.7500000000,	0.0073599928,	-3.4715319619
3238,	4.0000000000,	0.0123281054,	-3.4721645476
3239,	4.2500000000,	0.0073599928,	-3.4715319619
3240,	4.5000000000,	-0.0094337196,	-3.4693936320
3241,	4.7500000000,	-0.0523511618,	-3.4639289888
3242,	3.2500000000,	-0.0868709840,	-3.4595336077
3243,	3.5000000000,	-0.0868709840,	-3.4595336077
3244,	3.7500000000,	-0.0868709840,	-3.4595336077
3245,	4.0000000000,	-0.0868709840,	-3.4595336077
3246,	4.2500000000,	-0.0868709840,	-3.4595336077
3247,	4.5000000000,	-0.0868709840,	-3.4595336077
3248,	4.7500000000,	-0.0868709840,	-3.4595336077
3249,	3.2500000000,	-0.1213908062,	-3.4551382266
3250,	3.5000000000,	-0.1643082485,	-3.4496735833
3251,	3.7500000000,	-0.1811019609,	-3.4475352535
3252,	4.0000000000,	-0.1860700735,	-3.4469026677
3253,	4.2500000000,	-0.1811019609,	-3.4475352535
3254,	4.5000000000,	-0.1643082485,	-3.4496735833
3255,	4.7500000000,	-0.1213908062,	-3.4551382266
3256,	3.2500000000,	-0.0194409947,	-3.2658678647
3257,	3.5000000000,	0.0230356101,	-3.2740841422
3258,	3.7500000000,	0.0396568216,	-3.2772991941
3259,	4.0000000000,	0.0445739030,	-3.2782503084
3260,	4.2500000000,	0.0396568216,	-3.2772991941
3261,	4.5000000000,	0.0230356101,	-3.2740841422
3262,	4.7500000000,	-0.0194409947,	-3.2658678647
3263,	3.2500000000,	-0.0536062378,	-3.2592592593
3264,	3.5000000000,	-0.0536062378,	-3.2592592593
3265,	3.7500000000,	-0.0536062378,	-3.2592592593
3266,	4.0000000000,	-0.0536062378,	-3.2592592593
3267,	4.2500000000,	-0.0536062378,	-3.2592592593
3268,	4.5000000000,	-0.0536062378,	-3.2592592593
3269,	4.7500000000,	-0.0536062378,	-3.2592592593
3270,	3.2500000000,	-0.0877714809,	-3.2526506538
3271,	3.5000000000,	-0.1302480857,	-3.2444343763
3272,	3.7500000000,	-0.1468692972,	-3.2412193244
3273,	4.0000000000,	-0.1517863786,	-3.2402682101
3274,	4.2500000000,	-0.1468692972,	-3.2412193244
3275,	4.5000000000,	-0.1302480857,	-3.2444343763
3276,	4.7500000000,	-0.0877714809,	-3.2526506538
3277,	3.2500000000,	0.0196994941,	-3.0916691514
3278,	3.5000000000,	0.0618067275,	-3.1016064584
3279,	3.7500000000,	0.0782834030,	-3.1054949539
3280,	4.0000000000,	0.0831577260,	-3.1066452941
3281,	4.2500000000,	0.0782834030,	-3.1054949539
3282,	4.5000000000,	0.0618067275,	-3.1016064584
3283,	4.7500000000,	0.0196994941,	-3.0916691514
3284,	3.2500000000,	-0.0141686521,	-3.0836762689
3285,	3.5000000000,	-0.0141686521,	-3.0836762689
3286,	3.7500000000,	-0.0141686521,	-3.0836762689
3287,	4.0000000000,	-0.0141686521,	-3.0836762689
3288,	4.2500000000,	-0.0141686521,	-3.0836762689
3289,	4.5000000000,	-0.0141686521,	-3.0836762689
3290,	4.7500000000,	-0.0141686521,	-3.0836762689
3291,	3.2500000000,	-0.0480367983,	-3.0756833864
3292,	3.5000000000,	-0.0901440317,	-3.0657460793
3293,	3.7500000000,	-0.1066207071,	-3.0618575839
3294,	4.0000000000,	-0.1114950302,	-3.0607072436
3295,	4.2500000000,	-0.1066207071,	-3.0618575839
3296,	4.5000000000,	-0.0901440317,	-3.0657460793
3297,	4.7500000000,	-0.0480367983,	-3.0756833864
3298,	3.2500000000,	0.0611946931,	-2.9243166136
3299,	3.5000000000,	0.1033019264,	-2.9342539207
3300,	3.7500000000,	0.1197786019,	-2.9381424161
3301,	4.0000000000,	0.1246529249,	-2.9392927564
3302,	4.2500000000,	0.1197786019,	-2.9381424161
3303,	4.5000000000,	0.1033019264,	-2.9342539207
3304,	4.7500000000,	0.0611946931,	-2.9243166136
3305,	3.2500000000,	0.0273265468,	-2.9163237311
3306,	3.5000000000,	0.0273265468,	-2.9163237311
3307,	3.7500000000,	0.0273265468,	-2.9163237311
3308,	4.0000000000,	0.0273265468,	-2.9163237311
3309,	4.2500000000,	0.0273265468,	-2.9163237311
3310,	4.5000000000,	0.0273265468,	-2.9163237311
3311,	4.7500000000,	0.0273265468,	-2.9163237311
3312,	3.2500000000,	-0.0065415994,	-2.9083308486
3313,	3.5000000000,	-0.0486488328,	-2.8983935416
3314,	3.7500000000,	-0.0651255082,	-2.8945050461
3315,	4.0000000000,	-0.0699998313,	-2.8933547059
3316,	4.2500000000,	-0.0651255082,	-2.8945050461
3317,	4.5000000000,	-0.0486488328,	-2.8983935416
3318,	4.7500000000,	-0.0065415994,	-2.9083308486
3319,	3.2500000000,	0.1009293756,	-2.7473493462
3320,	3.5000000000,	0.1434059804,	-2.7555656237
3321,	3.7500000000,	0.1600271920,	-2.7587806756
3322,	4.0000000000,	0.1649442734,	-2.7597317899
3323,	4.2500000000,	0.1600271920,	-2.7587806756
3324,	4.5000000000,	0.1434059804,	-2.7555656237
3325,	4.7500000000,	0.1009293756,	-2.7473493462
3326,	3.2500000000,	0.0667641326,	-2.7407407407
3327,	3.5000000000,	0.0667641326,	-2.7407407407
3328,	3.7500000000,	0.0667641326,	-2.7407407407
3329,	4.0000000000,	0.0667641326,	-2.7407407407
3330,	4.2500000000,	0.0667641326,	-2.7407407407
3331,	4.5000000000,	0.0667641326,	-2.7407407407
3332,	4.7500000000,	0.0667641326,	-2.7407407407
3333,	3.2500000000,	0.0325988895,	-2.7341321353
3334,	3.5000000000,	-0.0098777153,	-2.7259158578
3335,	3.7500000000,	-0.0264989269,	-2.7227008059
3336,	4.0000000000,	-0.0314160083,	-2.7217496916
3337,	4.2500000000,	-0.0264989269,	-2.7227008059
3338,	4.5000000000,	-0.0098777153,	-2.7259158578
3339,	4.7500000000,	0.0325988895,	-2.7341321353
3340,	3.2500000000,	0.1345487010,	-2.5448617734
3341,	3.5000000000,	0.1774661432,	-2.5503264167
3342,	3.7500000000,	0.1942598556,	-2.5524647465
3343,	4.0000000000,	0.1992279683,	-2.5530973323
3344,	4.2500000000,	0.1942598556,	-2.5524647465
3345,	4.5000000000,	0.1774661432,	-2.5503264167
3346,	4.7500000000,	0.1345487010,	-2.5448617734
3347,	3.2500000000,	0.1000288788,	-2.5404663923
3348,	3.5000000000,	0.1000288788,	-2.5404663923
3349,	3.7500000000,	0.1000288788,	-2.5404663923
3350,	4.0000000000,	0.1000288788,	-2.5404663923
3351,	4.2500000000,	0.1000288788,	-2.5404663923
3352,	4.5000000000,	0.1000288788,	-2.5404663923
3353,	4.7500000000,	0.1000288788,	-2.5404663923
3354,	3.2500000000,	0.0655090566,	-2.5360710112
3355,	3.5000000000,	0.0225916144,	-2.5306063680
3356,	3.7500000000,	0.0057979019,	-2.5284680381
3357,	4.0000000000,	0.0008297893,	-2.5278354524
3358,	4.2500000000,	0.0057979019,	-2.5284680381
3359,	4.5000000000,	0.0225916144,	-2.5306063680
3360,	4.7500000000,	0.0655090566,	-2.5360710112
3361,	3.2500000000,	0.1577449458,	-2.3010677143
3362,	3.5000000000,	0.2009353658,	-2.3035889824
3363,	3.7500000000,	0.2178358952,	-2.3045755616
3364,	4.0000000000,	0.2228356077,	-2.3048674229
3365,	4.2500000000,	0.2178358952,	-2.3045755616
3366,	4.5000000000,	0.2009353658,	-2.3035889824
3367,	4.7500000000,	0.1577449458,	-2.3010677143
3368,	3.2500000000,	0.1230055592,	-2.2990397805
3369,	3.5000000000,	0.1230055592,	-2.2990397805
3370,	3.7500000000,	0.1230055592,	-2.2990397805
3371,	4.0000000000,	0.1230055592,	-2.2990397805
3372,	4.2500000000,	0.1230055592,	-2.2990397805
3373,	4.5000000000,	0.1230055592,	-2.2990397805
3374,	4.7500000000,	0.1230055592,	-2.2990397805
3375,	3.2500000000,	0.0882661725,	-2.2970118468
3376,	3.5000000000,	0.0450757525,	-2.2944905786
3377,	3.7500000000,	0.0281752232,	-2.2935039995
3378,	4.0000000000,	0.0231755107,	-2.2932121381
3379,	4.2500000000,	0.0281752232,	-2.2935039995
3380,	4.5000000000,	0.0450757525,	-2.2944905786
3381,	4.7500000000,	0.0882661725,	-2.2970118468
3382,	3.2500000000,	0.1663774746,	-2.0000000000
3383,	3.5000000000,	0.2096414223,	-2.0000000000
3384,	3.7500000000,	0.2265707233,	-2.0000000000
3385,	4.0000000000,	0.2315789474,	-2.0000000000
3386,	4.2500000000,	0.2265707233,	-2.0000000000
3387,	4.5000000000,	0.2096414223,	-2.0000000000
3388,	4.7500000000,	0.1663774746,	-2.0000000000
3389,	3.2500000000,	0.1315789474,	-2.0000000000
3390,	3.5000000000,	0.1315789474,	-2.0000000000
3391,	3.7500000000,	0.1315789474,	-2.0000000000
3392,	4.0000000000,	0.1315789474,	-2.0000000000
3393,	4.2500000000,	0.1315789474,	-2.0000000000
3394,	4.5000000000,	0.1315789474,	-2.0000000000
3395,	4.7500000000,	0.1315789474,	-2.0000000000
3396,	3.2500000000,	0.0967804201,	-2.0000000000
3397,	3.5000000000,	0.0535164724,	-2.0000000000
3398,	3.7500000000,	0.0365871714,	-2.0000000000
3399,	4.0000000000,	0.0315789474,	-2.0000000000
3400,	4.2500000000,	0.0365871714,	-2.0000000000
3401,	4.5000000000,	0.0535164724,	-2.0000000000
3402,	4.7500000000,	0.0967804201,	-2.0000000000
3403,	3.2500000000,	0.1577449458,	-1.6989322857
3404,	3.5000000000,	0.2009353658,	-1.6964110176
3405,	3.7500000000,	0.2178358952,	-1.6954244384
3406,	4.0000000000,	0.2228356077,	-1.6951325771
3407,	4.2500000000,	0.2178358952,	-1.6954244384
3408,	4.5000000000,	0.2009353658,	-1.6964110176
3409,	4.7500000000,	0.1577449458,	-1.6989322857
3410,	3.2500000000,	0.1230055592,	-1.7009602195
3411,	3.5000000000,	0.1230055592,	-1.7009602195
3412,	3.7500000000,	0.1230055592,	-1.7009602195
3413,	4.0000000000,	0.1230055592,	-1.7009602195
3414,	4.2500000000,	0.1230055592,	-1.7009602195
3415,	4.5000000000,	0.1230055592,	-1.7009602195
3416,	4.7500000000,	0.1230055592,	-1.7009602195
3417,	3.2500000000,	0.0882661725,	-1.7029881532
3418,	3.5000000000,	0.0450757525,	-1.7055094214
3419,	3.7500000000,	0.0281752232,	-1.7064960005
3420,	4.0000000000,	0.0231755107,	-1.7067878619
3421,	4.2500000000,	0.0281752232,	-1.7064960005
3422,	4.5000000000,	0.0450757525,	-1.7055094214
3423,	4.7500000000,	0.0882661725,	-1.7029881532
3424,	3.2500000000,	0.1345487010,	-1.4551382266
3425,	3.5000000000,	0.1774661432,	-1.4496735833
3426,	3.7500000000,	0.1942598556,	-1.4475352535
3427,	4.0000000000,	0.1992279683,	-1.4469026677
3428,	4.2500000000,	0.1942598556,	-1.4475352535
3429,	4.5000000000,	0.1774661432,	-1.4496735833
3430,	4.7500000000,	0.1345487010,	-1.4551382266
3431,	3.2500000000,	0.1000288788,	-1.4595336077
3432,	3.5000000000,	0.1000288788,	-1.4595336077
3433,	3.7500000000,	0.1000288788,	-1.4595336077
3434,	4.0000000000,	0.1000288788,	-1.4595336077
3435,	4.2500000000,	0.1000288788,	-1.4595336077
3436,	4.5000000000,	0.1000288788,	-1.4595336077
3437,	4.7500000000,	0.1000288788,	-1.4595336077
3438,	3.2500000000,	0.0655090566,	-1.4639289888
3439,	3.5000000000,	0.0225916144,	-1.4693936320
3440,	3.7500000000,	0.0057979019,	-1.4715319619
3441,	4.0000000000,	0.0008297893,	-1.4721645476
3442,	4.2500000000,	0.0057979019,	-1.4715319619
3443,	4.5000000000,	0.0225916144,	-1.4693936320
3444,	4.7500000000,	0.0655090566,	-1.4639289888
3445,	3.2500000000,	0.1009293756,	-1.2526506538
3446,	3.5000000000,	0.1434059804,	-1.2444343763
3447,	3.7500000000,	0.1600271920,	-1.2412193244
3448,	4.0000000000,	0.1649442734,	-1.2402682101
3449,	4.2500000000,	0.1600271920,	-1.2412193244
3450,	4.5000000000,	0.1434059804,	-1.2444343763
3451,	4.7500000000,	0.1009293756,	-1.2526506538
3452,	3.2500000000,	0.0667641326,	-1.2592592593
3453,	3.5000000000,	0.0667641326,	-1.2592592593
3454,	3.7500000000,	0.0667641326,	-1.2592592593
3455,	4.0000000000,	0.0667641326,	-1.2592592593
3456,	4.2500000000,	0.0667641326,	-1.2592592593
3457,	4.5000000000,	0.0667641326,	-1.2592592593
3458,	4.7500000000,	0.0667641326,	-1.2592592593
3459,	3.2500000000,	0.0325988895,	-1.2658678647
3460,	3.5000000000,	-0.0098777153,	-1.2740841422
3461,	3.7500000000,	-0.0264989269,	-1.2772991941
3462,	4.0000000000,	-0.0314160083,	-1.2782503084
3463,	4.2500000000,	-0.0264989269,	-1.2772991941
3464,	4.5000000000,	-0.0098777153,	-1.2740841422
3465,	4.7500000000,	0.0325988895,	-1.2658678647
3466,	3.2500000000,	0.0611946931,	-1.0756833864
3467,	3.5000000000,	0.1033019264,	-1.0657460793
3468,	3.7500000000,	0.1197786019,	-1.0618575839
3469,	4.0000000000,	0.1246529249,	-1.0607072436
3470,	4.2500000000,	0.1197786019,	-1.0618575839
3471,	4.5000000000,	0.1033019264,	-1.0657460793
3472,	4.7500000000,	0.0611946931,	-1.0756833864
3473,	3.2500000000,	0.0273265468,	-1.0836762689
3474,	3.5000000000,	0.0273265468,	-1.0836762689
3475,	3.7500000000,	0.0273265468,	-1.0836762689
3476,	4.0000000000,	0.0273265468,	-1.0836762689
3477,	4.2500000000,	0.0273265468,	-1.0836762689
3478,	4.5000000000,	0.0273265468,	-1.0836762689
3479,	4.7500000000,	0.0273265468,	-1.0836762689
3480,	3.2500000000,	-0.0065415994,	-1.0916691514
3481,	3.5000000000,	-0.0486488328,	-1.1016064584
3482,	3.7500000000,	-0.0651255082,	-1.1054949539
3483,	4.0000000000,	-0.0699998313,	-1.1066452941
3484,	4.2500000000,	-0.0651255082,	-1.1054949539
3485,	4.5000000000,	-0.0486488328,	-1.1016064584
3486,	4.7500000000,	-0.0065415994,	-1.0916691514
3487,	3.2500000000,	0.0196994941,	-0.9083308486
3488,	3.5000000000,	0.0618067275,	-0.8983935416
3489,	3.7500000000,	0.0782834030,	-0.8945050461
3490,	4.0000000000,	0.0831577260,	-0.8933547059
3491,	4.2500000000,	0.0782834030,	-0.8945050461
3492,	4.5000000000,	0.0618067275,	-0.8983935416
3493,	4.7500000000,	0.0196994941,	-0.9083308486
3494,	3.2500000000,	-0.0141686521,	-0.9163237311
3495,	3.5000000000,	-0.0141686521,	-0.9163237311
3496,	3.7500000000,	-0.0141686521,	-0.9163237311
3497,	4.0000000000,	-0.0141686521,	-0.9163237311
3498,	4.2500000000,	-0.0141686521,	-0.9163237311
3499,	4.5000000000,	-0.0141686521,	-0.9163237311
3500,	4.7500000000,	-0.0141686521,	-0.9163237311
3501,	3.2500000000,	-0.0480367983,	-0.9243166136
3502,	3.5000000000,	-0.0901440317,	-0.9342539207
3503,	3.7500000000,	-0.1066207071,	-0.9381424161
3504,	4.0000000000,	-0.1114950302,	-0.9392927564
3505,	4.2500000000,	-0.1066207071,	-0.9381424161
3506,	4.5000000000,	-0.0901440317,	-0.9342539207
3507,	4.7500000000,	-0.0480367983,	-0.9243166136
3508,	3.2500000000,	-0.0194409947,	-0.7341321353
3509,	3.5000000000,	0.0230356101,	-0.7259158578
3510,	3.7500000000,	0.0396568216,	-0.7227008059
3511,	4.0000000000,	0.0445739030,	-0.7217496916
3512,	4.2500000000,	0.0396568216,	-0.7227008059
3513,	4.5000000000,	0.0230356101,	-0.7259158578
3514,	4.7500000000,	-0.0194409947,	-0.7341321353
3515,	3.2500000000,	-0.0536062378,	-0.7407407407
3516,	3.5000000000,	-0.0536062378,	-0.7407407407
3517,	3.7500000000,	-0.0536062378,	-0.7407407407
3518,	4.0000000000,	-0.0536062378,	-0.7407407407
3519,	4.2500000000,	-0.0536062378,	-0.7407407407
3520,	4.5000000000,	-0.0536062378,	-0.7407407407
3521,	4.7500000000,	-0.0536062378,	-0.7407407407
3522,	3.2500000000,	-0.0877714809,	-0.7473493462
3523,	3.5000000000,	-0.1302480857,	-0.7555656237
3524,	3.7500000000,	-0.1468692972,	-0.7587806756
3525,	4.0000000000,	-0.1517863786,	-0.7597317899
3526,	4.2500000000,	-0.1468692972,	-0.7587806756
3527,	4.5000000000,	-0.1302480857,	-0.7555656237
3528,	4.7500000000,	-0.0877714809,	-0.7473493462
3529,	3.2500000000,	-0.0523511618,	-0.5360710112
3530,	3.5000000000,	-0.0094337196,	-0.5306063680
3531,	3.7500000000,	0.0073599928,	-0.5284680381
3532,	4.0000000000,	0.0123281054,	-0.5278354524
3533,	4.2500000000,	0.0073599928,	-0.5284680381
3534,	4.5000000000,	-0.0094337196,	-0.5306063680
3535,	4.7500000000,	-0.0523511618,	-0.5360710112
3536,	3.2500000000,	-0.0868709840,	-0.5404663923
3537,	3.5000000000,	-0.0868709840,	-0.5404663923
3538,	3.7500000000,	-0.0868709840,	-0.5404663923
3539,	4.0000000000,	-0.0868709840,	-0.5404663923
3540,	4.2500000000,	-0.0868709840,	-0.5404663923
3541,	4.5000000000,	-0.0868709840,	-0.5404663923
3542,	4.7500000000,	-0.0868709840,	-0.5404663923
3543,	3.2500000000,	-0.1213908062,	-0.5448617734
3544,	3.5000000000,	-0.1643082485,	-0.5503264167
3545,	3.7500000000,	-0.1811019609,	-0.5524647465
3546,	4.0000000000,	-0.1860700735,	-0.5530973323
3547,	4.2500000000,	-0.1811019609,	-0.5524647465
3548,	4.5000000000,	-0.1643082485,	-0.5503264167
3549,	4.7500000000,	-0.1213908062,	-0.5448617734
3550,	3.2500000000,	-0.0751082778,	-0.2970118468
3551,	3.5000000000,	-0.0319178578,	-0.2944905786
3552,	3.7500000000,	-0.0150173284,	-0.2935039995
3553,	4.0000000000,	-0.0100176159,	-0.2932121381
3554,	4.2500000000,	-0.0150173284,	-0.2935039995
3555,	4.5000000000,	-0.0319178578,	-0.2944905786
3556,	4.7500000000,	-0.0751082778,	-0.2970118468
3557,	3.2500000000,	-0.1098476644,	-0.2990397805
3558,	3.5000000000,	-0.1098476644,	-0.2990397805
3559,	3.7500000000,	-0.1098476644,	-0.2990397805
3560,	4.0000000000,	-0.1098476644,	-0.2990397805
3561,	4.2500000000,	-0.1098476644,	-0.2990397805
3562,	4.5000000000,	-0.1098476644,	-0.2990397805
3563,	4.7500000000,	-0.1098476644,	-0.2990397805
3564,	3.2500000000,	-0.1445870511,	-0.3010677143
3565,	3.5000000000,	-0.1877774711,	-0.3035889824
3566,	3.7500000000,	-0.2046780004,	-0.3045755616
3567,	4.0000000000,	-0.2096777129,	-0.3048674229
3568,	4.2500000000,	-0.2046780004,	-0.3045755616
3569,	4.5000000000,	-0.1877774711,	-0.3035889824
3570,	4.7500000000,	-0.1445870511,	-0.3010677143
3571,	3.2500000000,	-0.0836225254,	0.0000000000
3572,	3.5000000000,	-0.0403585777,	0.0000000000
3573,	3.7500000000,	-0.0234292767,	0.0000000000
3574,	4.0000000000,	-0.0184210526,	0.0000000000
3575,	4.2500000000,	-0.0234292767,	0.0000000000
3576,	4.5000000000,	-0.0403585777,	0.0000000000
3577,	4.7500000000,	-0.0836225254,	0.0000000000
3578,	3.2500000000,	-0.1184210526,	0.0000000000
3579,	3.5000000000,	-0.1184210526,	0.0000000000
3580,	3.7500000000,	-0.1184210526,	0.0000000000
3581,	4.0000000000,	-0.1184210526,	0.0000000000
3582,	4.2500000000,	-0.1184210526,	0.0000000000
3583,	4.5000000000,	-0.1184210526,	0.0000000000
3584,	4.7500000000,	-0.1184210526,	0.0000000000
3585,	3.2500000000,	-0.1532195799,	0.0000000000
3586,	3.5000000000,	-0.1964835276,	0.0000000000
3587,	3.7500000000,	-0.2134128286,	0.0000000000
3588,	4.0000000000,	-0.2184210526,	0.0000000000
3589,	4.2500000000,	-0.2134128286,	0.0000000000
3590,	4.5000000000,	-0.1964835276,	0.0000000000
3591,	4.7500000000,	-0.1532195799,	0.0000000000
3592,	3.2500000000,	-0.0836225254,	0.0000000000
3593,	3.5000000000,	-0.0403585777,	0.0000000000
3594,	3.7500000000,	-0.0234292767,	0.0000000000
3595,	4.0000000000,	-0.0184210526,	0.0000000000
3596,	4.2500000000,	-0.0234292767,	0.0000000000
3597,	4.5000000000,	-0.0403585777,	0.0000000000
3598,	4.7500000000,	-0.0836225254,	0.0000000000
3599,	3.2500000000,	-0.1184210526,	0.0000000000
3600,	3.5000000000,	-0.1184210526,	0.0000000000
3601,	3.7500000000,	-0.1184210526,	0.0000000000
3602,	4.0000000000,	-0.1184210526,	0.0000000000
3603,	4.2500000000,	-0.1184210526,	0.0000000000
3604,	4.5000000000,	-0.1184210526,	0.0000000000
3605,	4.7500000000,	-0.1184210526,	0.0000000000
3606,	3.2500000000,	-0.1532195799,	0.0000000000
3607,	3.5000000000,	-0.1964835276,	0.0000000000
3608,	3.7500000000,	-0.2134128286,	0.0000000000
3609,	4.0000000000,	-0.2184210526,	0.0000000000
3610,	4.2500000000,	-0.2134128286,	0.0000000000
3611,	4.5000000000,	-0.1964835276,	0.0000000000
3612,	4.7500000000,	-0.1532195799,	0.0000000000
3613,	3.2500000000,	-0.0751082778,	0.2970118468
3614,	3.5000000000,	-0.0319178578,	0.2944905786
3615,	3.7500000000,	-0.0150173284,	0.2935039995
3616,	4.0000000000,	-0.0100176159,	0.2932121381
3617,	4.2500000000,	-0.0150173284,	0.2935039995
3618,	4.5000000000,	-0.0319178578,	0.2944905786
3619,	4.7500000000,	-0.0751082778,	0.2970118468
3620,	3.2500000000,	-0.1098476644,	0.2990397805
3621,	3.5000000000,	-0.1098476644,	0.2990397805
3622,	3.7500000000,	-0.1098476644,	0.2990397805
3623,	4.0000000000,	-0.1098476644,	0.2990397805
3624,	4.2500000000,	-0.1098476644,	0.2990397805
3625,	4.5000000000,	-0.1098476644,	0.2990397805
3626,	4.7500000000,	-0.1098476644,	0.2990397805
3627,	3.2500000000,	-0.1445870511,	0.3010677143
3628,	3.5000000000,	-0.1877774711,	0.3035889824
3629,	3.7500000000,	-0.2046780004,	0.3045755616
3630,	4.0000000000,	-0.2096777129,	0.3048674229
3631,	4.2500000000,	-0.2046780004,	0.3045755616
3632,	4.5000000000,	-0.1877774711,	0.3035889824
3633,	4.7500000000,	-0.1445870511,	0.3010677143
3634,	3.2500000000,	-0.0523511618,	0.5360710112
3635,	3.5000000000,	-0.0094337196,	0.5306063680
3636,	3.7500000000,	0.0073599928,	0.5284680381
3637,	4.0000000000,	0.0123281054,	0.5278354524
3638,	4.2500000000,	0.0073599928,	0.5284680381
3639,	4.5000000000,	-0.0094337196,	0.5306063680
3640,	4.7500000000,	-0.0523511618,	0.5360710112
3641,	3.2500000000,	-0.0868709840,	0.5404663923
3642,	3.5000000000,	-0.0868709840,	0.5404663923
3643,	3.7500000000,	-0.0868709840,	0.5404663923
3644,	4.0000000000,	-0.0868709840,	0.5404663923
3645,	4.2500000000,	-0.0868709840,	0.5404663923
3646,	4.5000000000,	-0.0868709840,	0.5404663923
3647,	4.7500000000,	-0.0868709840,	0.5404663923
3648,	3.2500000000,	-0.1213908062,	0.5448617734
3649,	3.5000000000,	-0.1643082485,	0.5503264167
3650,	3.7500000000,	-0.1811019609,	0.5524647465
3651,	4.0000000000,	-0.1860700735,	0.5530973323
3652,	4.2500000000,	-0.1811019609,	0.5524647465
3653,	4.5000000000,	-0.1643082485,	0.5503264167
3654,	4.7500000000,	-0.1213908062,	0.5448617734
3655,	3.2500000000,	-0.0194409947,	0.7341321353
3656,	3.5000000000,	0.0230356101,	0.7259158578
3657,	3.7500000000,	0.0396568216,	0.7227008059
3658,	4.0000000000,	0.0445739030,	0.7217496916
3659,	4.2500000000,	0.0396568216,	0.7227008059
3660,	4.5000000000,	0.0230356101,	0.7259158578
3661,	4.7500000000,	-0.0194409947,	0.7341321353
3662,	3.2500000000,	-0.0536062378,	0.7407407407
3663,	3.5000000000,	-0.0536062378,	0.7407407407
3664,	3.7500000000,	-0.0536062378,	0.7407407407
3665,	4.0000000000,	-0.0536062378,	0.7407407407
3666,	4.2500000000,	-0.0536062378,	0.7407407407
3667,	4.5000000000,	-0.0536062378,	0.7407407407
3668,	4.7500000000,	-0.0536062378,	0.7407407407
3669,	3.2500000000,	-0.0877714809,	0.7473493462
3670,	3.5000000000,	-0.1302480857,	0.7555656237
3671,	3.7500000000,	-0.1468692972,	0.7587806756
3672,	4.0000000000,	-0.1517863786,	0.7597317899
3673,	4.2500000000,	-0.1468692972,	0.7587806756
3674,	4.5000000000,	-0.1302480857,	0.7555656237
3675,	4.7500000000,	-0.0877714809,	0.7473493462
3676,	3.2500000000,	0.0196994941,	0.9083308486
3677,	3.5000000000,	0.0618067275,	0.8983935416
3678,	3.7500000000,	0.0782834030,	0.8945050461
3679,	4.0000000000,	0.0831577260,	0.8933547059
3680,	4.2500000000,	0.0782834030,	0.8945050461
3681,	4.5000000000,	0.0618067275,	0.8983935416
3682,	4.7500000000,	0.0196994941,	0.9083308486
3683,	3.2500000000,	-0.0141686521,	0.9163237311
3684,	3.5000000000,	-0.0141686521,	0.9163237311
3685,	3.7500000000,	-0.0141686521,	0.9163237311
3686,	4.0000000000,	-0.0141686521,	0.9163237311
3687,	4.2500000000,	-0.0141686521,	0.9163237311
3688,	4.5000000000,	-0.0141686521,	0.9163237311
3689,	4.7500000000,	-0.0141686521,	0.9163237311
3690,	3.2500000000,	-0.0480367983,	0.9243166136
3691,	3.5000000000,	-0.0901440317,	0.9342539207
3692,	3.7500000000,	-0.1066207071,	0.9381424161
3693,	4.0000000000,	-0.1114950302,	0.9392927564
3694,	4.2500000000,	-0.1066207071,	0.9381424161
3695,	4.5000000000,	-0.0901440317,	0.9342539207
3696,	4.7500000000,	-0.0480367983,	0.9243166136
3697,	3.2500000000,	0.0611946931,	1.0756833864
3698,	3.5000000000,	0.1033019264,	1.0657460793
3699,	3.7500000000,	0.1197786019,	1.0618575839
3700,	4.0000000000,	0.1246529249,	1.0607072436
3701,	4.2500000000,	0.1197786019,	1.0618575839
3702,	4.5000000000,	0.1033019264,	1.0657460793
3703,	4.7500000000,	0.0611946931,	1.0756833864
3704,	3.2500000000,	0.0273265468,	1.0836762689
3705,	3.5000000000,	0.0273265468,	1.0836762689
3706,	3.7500000000,	0.0273265468,	1.0836762689
3707,	4.0000000000,	0.0273265468,	1.0836762689
3708,	4.2500000000,	0.0273265468,	1.0836762689
3709,	4.5000000000,	0.0273265468,	1.0836762689
3710,	4.7500000000,	0.0273265468,	1.0836762689
3711,	3.2500000000,	-0.0065415994,	1.0916691514
3712,	3.5000000000,	-0.0486488328,	1.1016064584
3713,	3.7500000000,	-0.0651255082,	1.1054949539
3714,	4.0000000000,	-0.0699998313,	1.1066452941
3715,	4.2500000000,	-0.0651255082,	1.1054949539
3716,	4.5000000000,	-0.0486488328,	1.1016064584
3717,	4.7500000000,	-0.0065415994,	1.0916691514
3718,	3.2500000000,	0.1009293756,	1.2526506538
3719,	3.5000000000,	0.1434059804,	1.2444343763
3720,	3.7500000000,	0.1600271920,	1.2412193244
3721,	4.0000000000,	0.1649442734,	1.2402682101
3722,	4.2500000000,	0.1600271920,	1.2412193244
3723,	4.5000000000,	0.1434059804,	1.2444343763
3724,	4.7500000000,	0.1009293756,	1.2526506538
3725,	3.2500000000,	0.0667641326,	1.2592592593
3726,	3.5000000000,	0.0667641326,	1.2592592593
3727,	3.7500000000,	0.0667641326,	1.2592592593
3728,	4.0000000000,	0.0667641326,	1.2592592593
3729,	4.2500000000,	0.0667641326,	1.2592592593
3730,	4.5000000000,	0.0667641326,	1.2592592593
3731,	4.7500000000,	0.0667641326,	1.2592592593
3732,	3.2500000000,	0.0325988895,	1.2658678647
3733,	3.5000000000,	-0.0098777153,	1.2740841422
3734,	3.7500000000,	-0.0264989269,	1.2772991941
3735,	4.0000000000,	-0.0314160083,	1.2782503084
3736,	4.2500000000,	-0.0264989269,	1.2772991941
3737,	4.5000000000,	-0.0098777153,	1.2740841422
3738,	4.7500000000,	0.0325988895,	1.2658678647
3739,	3.2500000000,	0.1345487010,	1.4551382266
3740,	3.5000000000,	0.1774661432,	1.4496735833
3741,	3.7500000000,	0.1942598556,	1.4475352535
3742,	4.0000000000,	0.1992279683,	1.4469026677
3743,	4.2500000000,	0.1942598556,	1.4475352535
3744,	4.5000000000,	0.1774661432,	1.4496735833
3745,	4.7500000000,	0.1345487010,	1.4551382266
3746,	3.2500000000,	0.1000288788,	1.4595336077
3747,	3.5000000000,	0.1000288788,	1.4595336077
3748,	3.7500000000,	0.1000288788,	1.4595336077
3749,	4.0000000000,	0.1000288788,	1.4595336077
3750,	4.2500000000,	0.1000288788,	1.4595336077
3751,	4.5000000000,	0.1000288788,	1.4595336077
3752,	4.7500000000,	0.1000288788,	1.4595336077
3753,	3.2500000000,	0.0655090566,	1.4639289888
3754,	3.5000000000,	0.0225916144,	1.4693936320
3755,	3.7500000000,	0.0057979019,	1.4715319619
3756,	4.0000000000,	0.0008297893,	1.4721645476
3757,	4.2500000000,	0.0057979019,	1.4715319619
3758,	4.5000000000,	0.0225916144,	1.4693936320
3759,	4.7500000000,	0.0655090566,	1.4639289888
3760,	3.2500000000,	0.1577449458,	1.6989322857
3761,	3.5000000000,	0.2009353658,	1.6964110176
3762,	3.7500000000,	0.2178358952,	1.6954244384
3763,	4.0000000000,	0.2228356077,	1.6951325771
3764,	4.2500000000,	0.2178358952,	1.6954244384
3765,	4.5000000000,	0.2009353658,	1.6964110176
3766,	4.7500000000,	0.1577449458,	1.6989322857
3767,	3.2500000000,	0.1230055592,	1.7009602195
3768,	3.5000000000,	0.1230055592,	1.7009602195
3769,	3.7500000000,	0.1230055592,	1.7009602195
3770,	4.0000000000,	0.1230055592,	1.7009602195
3771,	4.2500000000,	0.1230055592,	1.7009602195
3772,	4.5000000000,	0.1230055592,	1.7009602195
3773,	4.7500000000,	0.1230055592,	1.7009602195
3774,	3.2500000000,	0.0882661725,	1.7029881532
3775,	3.5000000000,	0.0450757525,	1.7055094214
3776,	3.7500000000,	0.0281752232,	1.7064960005
3777,	4.0000000000,	0.0231755107,	1.7067878619
3778,	4.2500000000,	0.0281752232,	1.7064960005
3779,	4.5000000000,	0.0450757525,	1.7055094214
3780,	4.7500000000,	0.0882661725,	1.7029881532
3781,	3.2500000000,	0.1663774746,	2.0000000000
3782,	3.5000000000,	0.2096414223,	2.0000000000
3783,	3.7500000000,	0.2265707233,	2.0000000000
3784,	4.0000000000,	0.2315789474,	2.0000000000
3785,	4.2500000000,	0.2265707233,	2.0000000000
3786,	4.5000000000,	0.2096414223,	2.0000000000
3787,	4.7500000000,	0.1663774746,	2.0000000000
3788,	3.2500000000,	0.1315789474,	2.0000000000
3789,	3.5000000000,	0.1315789474,	2.0000000000
3790,	3.7500000000,	0.1315789474,	2.0000000000
3791,	4.0000000000,	0.1315789474,	2.0000000000
3792,	4.2500000000,	0.1315789474,	2.0000000000
3793,	4.5000000000,	0.1315789474,	2.0000000000
3794,	4.7500000000,	0.1315789474,	2.0000000000
3795,	3.2500000000,	0.0967804201,	2.0000000000
3796,	3.5000000000,	0.0535164724,	2.0000000000
3797,	3.7500000000,	0.0365871714,	2.0000000000
3798,	4.0000000000,	0.0315789474,	2.0000000000
3799,	4.2500000000,	0.0365871714,	2.0000000000
3800,	4.5000000000,	0.0535164724,	2.0000000000
3801,	4.7500000000,	0.0967804201,	2.0000000000
3802,	3.2500000000,	0.1577449458,	2.3010677143
3803,	3.5000000000,	0.2009353658,	2.3035889824
3804,	3.7500000000,	0.2178358952,	2.3045755616
3805,	4.0000000000,	0.2228356077,	2.3048674229
3806,	4.2500000000,	0.2178358952,	2.3045755616
3807,	4.5000000000,	0.2009353658,	2.3035889824
3808,	4.7500000000,	0.1577449458,	2.3010677143
3809,	3.2500000000,	0.1230055592,	2.2990397805
3810,	3.5000000000,	0.1230055592,	2.2990397805
3811,	3.7500000000,	0.1230055592,	2.2990397805
3812,	4.0000000000,	0.1230055592,	2.2990397805
3813,	4.2500000000,	0.1230055592,	2.2990397805
3814,	4.5000000000,	0.1230055592,	2.2990397805
3815,	4.7500000000,	0.1230055592,	2.2990397805
3816,	3.2500000000,	0.0882661725,	2.2970118468
3817,	3.5000000000,	0.0450757525,	2.2944905786
3818,	3.7500000000,	0.0281752232,	2.2935039995
3819,	4.0000000000,	0.0231755107,	2.2932121381
3820,	4.2500000000,	0.0281752232,	2.2935039995
3821,	4.5000000000,	0.0450757525,	2.2944905786
3822,	4.7500000000,	0.0882661725,	2.2970118468
3823,	3.2500000000,	0.1345487010,	2.5448617734
3824,	3.5000000000,	0.1774661432,	2.5503264167
3825,	3.7500000000,	0.1942598556,	2.5524647465
3826,	4.0000000000,	0.1992279683,	2.5530973323
3827,	4.2500000000,	0.1942598556,	2.5524647465
3828,	4.5000000000,	0.1774661432,	2.5503264167
3829,	4.7500000000,	0.1345487010,	2.5448617734
3830,	3.2500000000,	0.1000288788,	2.5404663923
3831,	3.5000000000,	0.1000288788,	2.5404663923
3832,	3.7500000000,	0.1000288788,	2.5404663923
3833,	4.0000000000,	0.1000288788,	2.5404663923
3834,	4.2500000000,	0.1000288788,	2.5404663923
3835,	4.5000000000,	0.1000288788,	2.5404663923
3836,	4.7500000000,	0.1000288788,	2.5404663923
3837,	3.2500000000,	0.0655090566,	2.5360710112
3838,	3.5000000000,	0.0225916144,	2.5306063680
3839,	3.7500000000,	0.0057979019,	2.5284680381
3840,	4.0000000000,	0.0008297893,	2.5278354524
3841,	4.2500000000,	0.0057979019,	2.5284680381
3842,	4.5000000000,	0.0225916144,	2.5306063680
3843,	4.7500000000,	0.0655090566,	2.5360710112
3844,	3.2500000000,	0.1009293756,	2.7473493462
3845,	3.5000000000,	0.1434059804,	2.7555656237
3846,	3.7500000000,	0.1600271920,	2.7587806756
3847,	4.0000000000,	0.1649442734,	2.7597317899
3848,	4.2500000000,	0.1600271920,	2.7587806756
3849,	4.5000000000,	0.1434059804,	2.7555656237
3850,	4.7500000000,	0.1009293756,	2.7473493462
3851,	3.2500000000,	0.0667641326,	2.7407407407
3852,	3.5000000000,	0.0667641326,	2.7407407407
3853,	3.7500000000,	0.0667641326,	2.7407407407
3854,	4.0000000000,	0.0667641326,	2.7407407407
3855,	4.2500000000,	0.0667641326,	2.7407407407
3856,	4.5000000000,	0.0667641326,	2.7407407407
3857,	4.7500000000,	0.0667641326,	2.7407407407
3858,	3.2500000000,	0.0325988895,	2.7341321353
3859,	3.5000000000,	-0.0098777153,	2.7259158578
3860,	3.7500000000,	-0.0264989269,	2.7227008059
3861,	4.0000000000,	-0.0314160083,	2.7217496916
3862,	4.2500000000,	-0.0264989269,	2.7227008059
3863,	4.5000000000,	-0.0098777153,	2.7259158578
3864,	4.7500000000,	0.0325988895,	2.7341321353
3865,	3.2500000000,	0.0611946931,	2.9243166136
3866,	3.5000000000,	0.1033019264,	2.9342539207
3867,	3.7500000000,	0.1197786019,	2.9381424161
3868,	4.0000000000,	0.1246529249,	2.9392927564
3869,	4.2500000000,	0.1197786019,	2.9381424161
3870,	4.5000000000,	0.1033019264,	2.9342539207
3871,	4.7500000000,	0.0611946931,	2.9243166136
3872,	3.2500000000,	0.0273265468,	2.9163237311
3873,	3.5000000000,	0.0273265468,	2.9163237311
3874,	3.7500000000,	0.0273265468,	2.9163237311
3875,	4.0000000000,	0.0273265468,	2.9163237311
3876,	4.2500000000,	0.0273265468,	2.9163237311
3877,	4.5000000000,	0.0273265468,	2.9163237311
3878,	4.7500000000,	0.0273265468,	2.9163237311
3879,	3.2500000000,	-0.0065415994,	2.9083308486
3880,	3.5000000000,	-0.0486488328,	2.8983935416
3881,	3.7500000000,	-0.0651255082,	2.8945050461
3882,	4.0000000000,	-0.0699998313,	2.8933547059
3883,	4.2500000000,	-0.0651255082,	2.8945050461
3884,	4.5000000000,	-0.0486488328,	2.8983935416
3885,	4.7500000000,	-0.0065415994,	2.9083308486
3886,	3.2500000000,	0.0196994941,	3.0916691514
3887,	3.5000000000,	0.0618067275,	3.1016064584
3888,	3.7500000000,	0.0782834030,	3.1054949539
3889,	4.0000000000,	0.0831577260,	3.1066452941
3890,	4.2500000000,	0.0782834030,	3.1054949539
3891,	4.5000000000,	0.0618067275,	3.1016064584
3892,	4.7500000000,	0.0196994941,	3.0916691514
3893,	3.2500000000,	-0.0141686521,	3.0836762689
3894,	3.5000000000,	-0.0141686521,	3.0836762689
3895,	3.7500000000,	-0.0141686521,	3.0836762689
3896,	4.0000000000,	-0.0141686521,	3.0836762689
3897,	4.2500000000,	-0.0141686521,	3.0836762689
3898,	4.5000000000,	-0.0141686521,	3.0836762689
3899,	4.7500000000,	-0.0141686521,	3.0836762689
3900,	3.2500000000,	-0.0480367983,	3.0756833864
3901,	3.5000000000,	-0.0901440317,	3.0657460793
3902,	3.7500000000,	-0.1066207071,	3.0618575839
3903,	4.0000000000,	-0.1114950302,	3.0607072436
3904,	4.2500000000,	-0.1066207071,	3.0618575839
3905,	4.5000000000,	-0.0901440317,	3.0657460793
3906,	4.7500000000,	-0.0480367983,	3.0756833864
3907,	3.2500000000,	-0.0194409947,	3.2658678647
3908,	3.5000000000,	0.0230356101,	3.2740841422
3909,	3.7500000000,	0.0396568216,	3.2772991941
3910,	4.0000000000,	0.0445739030,	3.2782503084
3911,	4.2500000000,	0.0396568216,	3.2772991941
3912,	4.5000000000,	0.0230356101,	3.2740841422
3913,	4.7500000000,	-0.0194409947,	3.2658678647
3914,	3.2500000000,	-0.0536062378,	3.2592592593
3915,	3.5000000000,	-0.0536062378,	3.2592592593
3916,	3.7500000000,	-0.0536062378,	3.2592592593
3917,	4.0000000000,	-0.0536062378,	3.2592592593
3918,	4.2500000000,	-0.0536062378,	3.2592592593
3919,	4.5000000000,	-0.0536062378,	3.2592592593
3920,	4.7500000000,	-0.0536062378,	3.2592592593
3921,	3.2500000000,	-0.0877714809,	3.2526506538
3922,	3.5000000000,	-0.1302480857,	3.2444343763
3923,	3.7500000000,	-0.1468692972,	3.2412193244
3924,	4.0000000000,	-0.1517863786,	3.2402682101
3925,	4.2500000000,	-0.1468692972,	3.2412193244
3926,	4.5000000000,	-0.1302480857,	3.2444343763
3927,	4.7500000000,	-0.0877714809,	3.2526506538
3928,	3.2500000000,	-0.0523511618,	3.4639289888
3929,	3.5000000000,	-0.0094337196,	3.4693936320
3930,	3.7500000000,	0.0073599928,	3.4715319619
3931,	4.0000000000,	0.0123281054,	3.4721645476
3932,	4.2500000000,	0.0073599928,	3.4715319619
3933,	4.5000000000,	-0.0094337196,	3.4693936320
3934,	4.7500000000,	-0.0523511618,	3.4639289888
3935,	3.2500000000,	-0.0868709840,	3.4595336077
3936,	3.5000000000,	-0.0868709840,	3.4595336077
3937,	3.7500000000,	-0.0868709840,	3.4595336077
3938,	4.0000000000,	-0.0868709840,	3.4595336077
3939,	4.2500000000,	-0.0868709840,	3.4595336077
3940,	4.5000000000,	-0.0868709840,	3.4595336077
3941,	4.7500000000,	-0.0868709840,	3.4595336077
3942,	3.2500000000,	-0.1213908062,	3.4551382266
3943,	3.5000000000,	-0.1643082485,	3.4496735833
3944,	3.7500000000,	-0.1811019609,	3.4475352535
3945,	4.0000000000,	-0.1860700735,	3.4469026677
3946,	4.2500000000,	-0.1811019609,	3.4475352535
3947,	4.5000000000,	-0.1643082485,	3.4496735833
3948,	4.7500000000,	-0.1213908062,	3.4551382266
3949,	3.2500000000,	-0.0751082778,	3.7029881532
3950,	3.5000000000,	-0.0319178578,	3.7055094214
3951,	3.7500000000,	-0.0150173284,	3.7064960005
3952,	4.0000000000,	-0.0100176159,	3.7067878619
3953,	4.2500000000,	-0.0150173284,	3.7064960005
3954,	4.5000000000,	-0.0319178578,	3.7055094214
3955,	4.7500000000,	-0.0751082778,	3.7029881532
3956,	3.2500000000,	-0.1098476644,	3.7009602195
3957,	3.5000000000,	-0.1098476644,	3.7009602195
3958,	3.7500000000,	-0.1098476644,	3.7009602195
3959,	4.0000000000,	-0.1098476644,	3.7009602195
3960,	4.2500000000,	-0.1098476644,	3.7009602195
3961,	4.5000000000,	-0.1098476644,	3.7009602195
3962,	4.7500000000,	-0.1098476644,	3.7009602195
3963,	3.2500000000,	-0.1445870511,	3.6989322857
3964,	3.5000000000,	-0.1877774711,	3.6964110176
3965,	3.7500000000,	-0.2046780004,	3.6954244384
3966,	4.0000000000,	-0.2096777129,	3.6951325771
3967,	4.2500000000,	-0.2046780004,	3.6954244384
3968,	4.5000000000,	-0.1877774711,	3.6964110176
3969,	4.7500000000,	-0.1445870511,	3.6989322857
3970,	3.2500000000,	-0.0836225254,	4.0000000000
3971,	3.5000000000,	-0.0403585777,	4.0000000000
3972,	3.7500000000,	-0.0234292767,	4.0000000000
3973,	4.0000000000,	-0.0184210526,	4.0000000000
3974,	4.2500000000,	-0.0234292767,	4.0000000000
3975,	4.5000000000,	-0.0403585777,	4.0000000000
3976,	4.7500000000,	-0.0836225254,	4.0000000000
3977,	3.2500000000,	-0.1184210526,	4.0000000000
3978,	3.5000000000,	-0.1184210526,	4.0000000000
3979,	3.7500000000,	-0.1184210526,	4.0000000000
3980,	4.0000000000,	-0.1184210526,	4.0000000000
3981,	4.2500000000,	-0.1184210526,	4.0000000000
3982,	4.5000000000,	-0.1184210526,	4.0000000000
3983,	4.7500000000,	-0.1184210526,	4.0000000000
3984,	3.2500000000,	-0.1532195799,	4.0000000000
3985,	3.5000000000,	-0.1964835276,	4.0000000000
3986,	3.7500000000,	-0.2134128286,	4.0000000000
3987,	4.0000000000,	-0.2184210526,	4.0000000000
3988,	4.2500000000,	-0.2134128286,	4.0000000000
3989,	4.5000000000,	-0.1964835276,	4.0000000000
3990,	4.7500000000,	-0.1532195799,	4.0000000000
3991,	-4.0000000000,	0.1532195799,	-3.2500000000
3992,	-4.0000000000,	0.1964835276,	-3.5000000000
3993,	-4.0000000000,	0.2134128286,	-3.7500000000
3994,	-4.0000000000,	0.2184210526,	-4.0000000000
3995,	-4.0000000000,	0.2134128286,	-4.2500000000
3996,	-4.0000000000,	0.1964835276,	-4.5000000000
3997,	-4.0000000000,	0.1532195799,	-4.7500000000
3998,	-4.0000000000,	0.1184210526,	-3.2500000000
3999,	-4.0000000000,	0.1184210526,	-3.5000000000
4000,	-4.0000000000,	0.1184210526,	-3.7500000000
4001,	-4.0000000000,	0.1184210526,	-4.0000000000
4002,	-4.0000000000,	0.1184210526,	-4.2500000000
4003,	-4.0000000000,	0.1184210526,	-4.5000000000
4004,	-4.0000000000,	0.1184210526,	-4.7500000000
4005,	-4.0000000000,	0.0836225254,	-3.2500000000
4006,	-4.0000000000,	0.0403585777,	-3.5000000000
4007,	-4.0000000000,	0.0234292767,	-3.7500000000
4008,	-4.0000000000,	0.0184210526,	-4.0000000000
4009,	-4.0000000000,	0.0234292767,	-4.2500000000
4010,	-4.0000000000,	0.0403585777,	-4.5000000000
4011,	-4.0000000000,	0.0836225254,	-4.7500000000
4012,	-3.6989322857,	0.1445870511,	-3.2500000000
4013,	-3.6964110176,	0.1877774711,	-3.5000000000
4014,	-3.6954244384,	0.2046780004,	-3.7500000000
4015,	-3.6951325771,	0.2096777129,	-4.0000000000
4016,	-3.6954244384,	0.2046780004,	-4.2500000000
4017,	-3.6964110176,	0.1877774711,	-4.5000000000
4018,	-3.6989322857,	0.1445870511,	-4.7500000000
4019,	-3.7009602195,	0.1098476644,	-3.2500000000
4020,	-3.7009602195,	0.1098476644,	-3.5000000000
4021,	-3.7009602195,	0.1098476644,	-3.7500000000
4022,	-3.7009602195,	0.1098476644,	-4.0000000000
4023,	-3.7009602195,	0.1098476644,	-4.2500000000
4024,	-3.7009602195,	0.1098476644,	-4.5000000000
4025,	-3.7009602195,	0.1098476644,	-4.7500000000
4026,	-3.7029881532,	0.0751082778,	-3.2500000000
4027,	-3.7055094214,	0.0319178578,	-3.5000000000
4028,	-3.7064960005,	0.0150173284,	-3.7500000000
4029,	-3.7067878619,	0.0100176159,	-4.0000000000
4030,	-3.7064960005,	0.0150173284,	-4.2500000000
4031,	-3.7055094214,	0.0319178578,	-4.5000000000
4032,	-3.7029881532,	0.0751082778,	-4.7500000000
4033,	-3.4551382266,	0.1213908062,	-3.2500000000
4034,	-3.4496735833,	0.1643082485,	-3.5000000000
4035,	-3.4475352535,	0.1811019609,	-3.7500000000
4036,	-3.4469026677,	0.1860700735,	-4.0000000000
4037,	-3.4475352535,	0.1811019609,	-4.2500000000
4038,	-3.4496735833,	0.1643082485,	-4.5000000000
4039,	-3.4551382266,	0.1213908062,	-4.7500000000
4040,	-3.4595336077,	0.0868709840,	-3.2500000000
4041,	-3.4595336077,	0.0868709840,	-3.5000000000
4042,	-3.4595336077,	0.0868709840,	-3.7500000000
4043,	-3.4595336077,	0.0868709840,	-4.0000000000
4044,	-3.4595336077,	0.0868709840,	-4.2500000000
4045,	-3.4595336077,	0.0868709840,	-4.5000000000
4046,	-3.4595336077,	0.0868709840,	-4.7500000000
4047,	-3.4639289888,	0.0523511618,	-3.2500000000
4048,	-3.4693936320,	0.0094337196,	-3.5000000000
4049,	-3.4715319619,	-0.0073599928,	-3.7500000000
4050,	-3.4721645476,	-0.0123281054,	-4.0000000000
4051,	-3.4715319619,	-0.0073599928,	-4.2500000000
4052,	-3.4693936320,	0.0094337196,	-4.5000000000
4053,	-3.4639289888,	0.0523511618,	-4.7500000000
4054,	-3.2526506538,	0.0877714809,	-3.2500000000
4055,	-3.2444343763,	0.1302480857,	-3.5000000000
4056,	-3.2412193244,	0.1468692972,	-3.7500000000
4057,	-3.2402682101,	0.1517863786,	-4.0000000000
4058,	-3.2412193244,	0.1468692972,	-4.2500000000
4059,	-3.2444343763,	0.1302480857,	-4.5000000000
4060,	-3.2526506538,	0.0877714809,	-4.7500000000
4061,	-3.2592592593,	0.0536062378,	-3.2500000000
4062,	-3.2592592593,	0.0536062378,	-3.5000000000
4063,	-3.2592592593,	0.0536062378,	-3.7500000000
4064,	-3.2592592593,	0.0536062378,	-4.0000000000
4065,	-3.2592592593,	0.0536062378,	-4.2500000000
4066,	-3.2592592593,	0.0536062378,	-4.5000000000
4067,	-3.2592592593,	0.0536062378,	-4.7500000000
4068,	-3.2658678647,	0.0194409947,	-3.2500000000
4069,	-3.2740841422,	-0.0230356101,	-3.5000000000
4070,	-3.2772991941,	-0.0396568216,	-3.7500000000
4071,	-3.2782503084,	-0.0445739030,	-4.0000000000
4072,	-3.2772991941,	-0.0396568216,	-4.2500000000
4073,	-3.2740841422,	-0.0230356101,	-4.5000000000
4074,	-3.2658678647,	0.0194409947,	-4.7500000000
4075,	-3.0756833864,	0.0480367983,	-3.2500000000
4076,	-3.0657460793,	0.0901440317,	-3.5000000000
4077,	-3.0618575839,	0.1066207071,	-3.7500000000
4078,	-3.0607072436,	0.1114950302,	-4.0000000000
4079,	-3.0618575839,	0.1066207071,	-4.2500000000
4080,	-3.0657460793,	0.0901440317,	-4.5000000000
4081,	-3.0756833864,	0.0480367983,	-4.7500000000
4082,	-3.0836762689,	0.0141686521,	-3.2500000000
4083,	-3.0836762689,	0.0141686521,	-3.5000000000
4084,	-3.0836762689,	0.0141686521,	-3.7500000000
4085,	-3.0836762689,	0.0141686521,	-4.0000000000
4086,	-3.0836762689,	0.0141686521,	-4.2500000000
4087,	-3.0836762689,	0.0141686521,	-4.5000000000
4088,	-3.0836762689,	0.0141686521,	-4.7500000000
4089,	-3.0916691514,	-0.0196994941,	-3.2500000000
4090,	-3.1016064584,	-0.0618067275,	-3.5000000000
4091,	-3.1054949539,	-0.0782834030,	-3.7500000000
4092,	-3.1066452941,	-0.0831577260,	-4.0000000000
4093,	-3.1054949539,	-0.0782834030,	-4.2500000000
4094,	-3.1016064584,	-0.0618067275,	-4.5000000000
4095,	-3.0916691514,	-0.0196994941,	-4.7500000000
4096,	-2.9083308486,	0.0065415994,	-3.2500000000
4097,	-2.8983935416,	0.0486488328,	-3.5000000000
4098,	-2.8945050461,	0.0651255082,	-3.7500000000
4099,	-2.8933547059,	0.0699998313,	-4.0000000000
4100,	-2.8945050461,	0.0651255082,	-4.2500000000
4101,	-2.8983935416,	0.0486488328,	-4.5000000000
4102,	-2.9083308486,	0.0065415994,	-4.7500000000
4103,	-2.9163237311,	-0.0273265468,	-3.2500000000
4104,	-2.9163237311,	-0.0273265468,	-3.5000000000
4105,	-2.9163237311,	-0.0273265468,	-3.7500000000
4106,	-2.9163237311,	-0.0273265468,	-4.0000000000
4107,	-2.9163237311,	-0.0273265468,	-4.2500000000
4108,	-2.9163237311,	-0.0273265468,	-4.5000000000
4109,	-2.9163237311,	-0.0273265468,	-4.7500000000
4110,	-2.9243166136,	-0.0611946931,	-3.2500000000
4111,	-2.9342539207,	-0.1033019264,	-3.5000000000
4112,	-2.9381424161,	-0.1197786019,	-3.7500000000
4113,	-2.9392927564,	-0.1246529249,	-4.0000000000
4114,	-2.9381424161,	-0.1197786019,	-4.2500000000
4115,	-2.9342539207,	-0.1033019264,	-4.5000000000
4116,	-2.9243166136,	-0.0611946931,	-4.7500000000
4117,	-2.7341321353,	-0.0325988895,	-3.2500000000
4118,	-2.7259158578,	0.0098777153,	-3.5000000000
4119,	-2.7227008059,	0.0264989269,	-3.7500000000
4120,	-2.7217496916,	0.0314160083,	-4.0000000000
4121,	-2.7227008059,	0.0264989269,	-4.2500000000
4122,	-2.7259158578,	0.0098777153,	-4.5000000000
4123,	-2.7341321353,	-0.0325988895,	-4.7500000000
4124,	-2.7407407407,	-0.0667641326,	-3.2500000000
4125,	-2.7407407407,	-0.0667641326,	-3.5000000000
4126,	-2.7407407407,	-0.0667641326,	-3.7500000000
4127,	-2.7407407407,	-0.0667641326,	-4.0000000000
4128,	-2.7407407407,	-0.0667641326,	-4.2500000000
4129,	-2.7407407407,	-0.0667641326,	-4.5000000000
4130,	-2.7407407407,	-0.0667641326,	-4.7500000000
4131,	-2.7473493462,	-0.1009293756,	-3.2500000000
4132,	-2.7555656237,	-0.1434059804,	-3.5000000000
4133,	-2.7587806756,	-0.1600271920,	-3.7500000000
4134,	-2.7597317899,	-0.1649442734,	-4.0000000000
4135,	-2.7587806756,	-0.1600271920,	-4.2500000000
4136,	-2.7555656237,	-0.1434059804,	-4.5000000000
4137,	-2.7473493462,	-0.1009293756,	-4.7500000000
4138,	-2.5360710112,	-0.0655090566,	-3.2500000000
4139,	-2.5306063680,	-0.0225916144,	-3.5000000000
4140,	-2.5284680381,	-0.0057979019,	-3.7500000000
4141,	-2.5278354524,	-0.0008297893,	-4.0000000000
4142,	-2.5284680381,	-0.0057979019,	-4.2500000000
4143,	-2.5306063680,	-0.0225916144,	-4.5000000000
4144,	-2.5360710112,	-0.0655090566,	-4.7500000000
4145,	-2.5404663923,	-0.1000288788,	-3.2500000000
4146,	-2.5404663923,	-0.1000288788,	-3.5000000000
4147,	-2.5404663923,	-0.1000288788,	-3.7500000000
4148,	-2.5404663923,	-0.1000288788,	-4.0000000000
4149,	-2.5404663923,	-0.1000288788,	-4.2500000000
4150,	-2.5404663923,	-0.1000288788,	-4.5000000000
4151,	-2.5404663923,	-0.1000288788,	-4.7500000000
4152,	-2.5448617734,	-0.1345487010,	-3.2500000000
4153,	-2.5503264167,	-0.1774661432,	-3.5000000000
4154,	-2.5524647465,	-0.1942598556,	-3.7500000000
4155,	-2.5530973323,	-0.1992279683,	-4.0000000000
4156,	-2.5524647465,	-0.1942598556,	-4.2500000000
4157,	-2.5503264167,	-0.1774661432,	-4.5000000000
4158,	-2.5448617734,	-0.1345487010,	-4.7500000000
4159,	-2.2970118468,	-0.0882661725,	-3.2500000000
4160,	-2.2944905786,	-0.0450757525,	-3.5000000000
4161,	-2.2935039995,	-0.0281752232,	-3.7500000000
4162,	-2.2932121381,	-0.0231755107,	-4.0000000000
4163,	-2.2935039995,	-0.0281752232,	-4.2500000000
4164,	-2.2944905786,	-0.0450757525,	-4.5000000000
4165,	-2.2970118468,	-0.0882661725,	-4.7500000000
4166,	-2.2990397805,	-0.1230055592,	-3.2500000000
4167,	-2.2990397805,	-0.1230055592,	-3.5000000000
4168,	-2.2990397805,	-0.1230055592,	-3.7500000000
4169,	-2.2990397805,	-0.1230055592,	-4.0000000000
4170,	-2.2990397805,	-0.1230055592,	-4.2500000000
4171,	-2.2990397805,	-0.1230055592,	-4.5000000000
4172,	-2.2990397805,	-0.1230055592,	-4.7500000000
4173,	-2.3010677143,	-0.1577449458,	-3.2500000000
4174,	-2.3035889824,	-0.2009353658,	-3.5000000000
4175,	-2.3045755616,	-0.2178358952,	-3.7500000000
4176,	-2.3048674229,	-0.2228356077,	-4.0000000000
4177,	-2.3045755616,	-0.2178358952,	-4.2500000000
4178,	-2.3035889824,	-0.2009353658,	-4.5000000000
4179,	-2.3010677143,	-0.1577449458,	-4.7500000000
4180,	-2.0000000000,	-0.0967804201,	-3.2500000000
4181,	-2.0000000000,	-0.0535164724,	-3.5000000000
4182,	-2.0000000000,	-0.0365871714,	-3.7500000000
4183,	-2.0000000000,	-0.0315789474,	-4.0000000000
4184,	-2.0000000000,	-0.0365871714,	-4.2500000000
4185,	-2.0000000000,	-0.0535164724,	-4.5000000000
4186,	-2.0000000000,	-0.0967804201,	-4.7500000000
4187,	-2.0000000000,	-0.1315789474,	-3.2500000000
4188,	-2.0000000000,	-0.1315789474,	-3.5000000000
4189,	-2.0000000000,	-0.1315789474,	-3.7500000000
4190,	-2.0000000000,	-0.1315789474,	-4.0000000000
4191,	-2.0000000000,	-0.1315789474,	-4.2500000000
4192,	-2.0000000000,	-0.1315789474,	-4.5000000000
4193,	-2.0000000000,	-0.1315789474,	-4.7500000000
4194,	-2.0000000000,	-0.1663774746,	-3.2500000000
4195,	-2.0000000000,	-0.2096414223,	-3.5000000000
4196,	-2.0000000000,	-0.2265707233,	-3.7500000000
4197,	-2.0000000000,	-0.2315789474,	-4.0000000000
4198,	-2.0000000000,	-0.2265707233,	-4.2500000000
4199,	-2.0000000000,	-0.2096414223,	-4.5000000000
4200,	-2.0000000000,	-0.1663774746,	-4.7500000000
4201,	-1.7029881532,	-0.0882661725,	-3.2500000000
4202,	-1.7055094214,	-0.0450757525,	-3.5000000000
4203,	-1.7064960005,	-0.0281752232,	-3.7500000000
4204,	-1.7067878619,	-0.0231755107,	-4.0000000000
4205,	-1.7064960005,	-0.0281752232,	-4.2500000000
4206,	-1.7055094214,	-0.0450757525,	-4.5000000000
4207,	-1.7029881532,	-0.0882661725,	-4.7500000000
4208,	-1.7009602195,	-0.1230055592,	-3.2500000000
4209,	-1.7009602195,	-0.1230055592,	-3.5000000000
4210,	-1.7009602195,	-0.1230055592,	-3.7500000000
4211,	-1.7009602195,	-0.1230055592,	-4.0000000000
4212,	-1.7009602195,	-0.1230055592,	-4.2500000000
4213,	-1.7009602195,	-0.1230055592,	-4.5000000000
4214,	-1.7009602195,	-0.1230055592,	-4.7500000000
4215,	-1.6989322857,	-0.1577449458,	-3.2500000000
4216,	-1.6964110176,	-0.2009353658,	-3.5000000000
4217,	-1.6954244384,	-0.2178358952,	-3.7500000000
4218,	-1.6951325771,	-0.2228356077,	-4.0000000000
4219,	-1.6954244384,	-0.2178358952,	-4.2500000000
4220,	-1.6964110176,	-0.2009353658,	-4.5000000000
4221,	-1.6989322857,	-0.1577449458,	-4.7500000000
4222,	-1.4639289888,	-0.0655090566,	-3.2500000000
4223,	-1.4693936320,	-0.0225916144,	-3.5000000000
4224,	-1.4715319619,	-0.0057979019,	-3.7500000000
4225,	-1.4721645476,	-0.0008297893,	-4.0000000000
4226,	-1.4715319619,	-0.0057979019,	-4.2500000000
4227,	-1.4693936320,	-0.0225916144,	-4.5000000000
4228,	-1.4639289888,	-0.0655090566,	-4.7500000000
4229,	-1.4595336077,	-0.1000288788,	-3.2500000000
4230,	-1.4595336077,	-0.1000288788,	-3.5000000000
4231,	-1.4595336077,	-0.1000288788,	-3.7500000000
4232,	-1.4595336077,	-0.1000288788,	-4.0000000000
4233,	-1.4595336077,	-0.1000288788,	-4.2500000000
4234,	-1.4595336077,	-0.1000288788,	-4.5000000000
4235,	-1.4595336077,	-0.1000288788,	-4.7500000000
4236,	-1.4551382266,	-0.1345487010,	-3.2500000000
4237,	-1.4496735833,	-0.1774661432,	-3.5000000000
4238,	-1.4475352535,	-0.1942598556,	-3.7500000000
4239,	-1.4469026677,	-0.1992279683,	-4.0000000000
4240,	-1.4475352535,	-0.1942598556,	-4.2500000000
4241,	-1.4496735833,	-0.1774661432,	-4.5000000000
4242,	-1.4551382266,	-0.1345487010,	-4.7500000000
4243,	-1.2658678647,	-0.0325988895,	-3.2500000000
4244,	-1.2740841422,	0.0098777153,	-3.5000000000
4245,	-1.2772991941,	0.0264989269,	-3.7500000000
4246,	-1.2782503084,	0.0314160083,	-4.0000000000
4247,	-1.2772991941,	0.0264989269,	-4.2500000000
4248,	-1.2740841422,	0.0098777153,	-4.5000000000
4249,	-1.2658678647,	-0.0325988895,	-4.7500000000
4250,	-1.2592592593,	-0.0667641326,	-3.2500000000
4251,	-1.2592592593,	-0.0667641326,	-3.5000000000
4252,	-1.2592592593,	-0.0667641326,	-3.7500000000
4253,	-1.2592592593,	-0.0667641326,	-4.0000000000
4254,	-1.2592592593,	-0.0667641326,	-4.2500000000
4255,	-1.2592592593,	-0.0667641326,	-4.5000000000
4256,	-1.2592592593,	-0.0667641326,	-4.7500000000
4257,	-1.2526506538,	-0.1009293756,	-3.2500000000
4258,	-1.2444343763,	-0.1434059804,	-3.5000000000
4259,	-1.2412193244,	-0.1600271920,	-3.7500000000
4260,	-1.2402682101,	-0.1649442734,	-4.0000000000
4261,	-1.2412193244,	-0.1600271920,	-4.2500000000
4262,	-1.2444343763,	-0.1434059804,	-4.5000000000
4263,	-1.2526506538,	-0.1009293756,	-4.7500000000
4264,	-1.0916691514,	0.0065415994,	-3.2500000000
4265,	-1.1016064584,	0.0486488328,	-3.5000000000
4266,	-1.1054949539,	0.0651255082,	-3.7500000000
4267,	-1.1066452941,	0.0699998313,	-4.0000000000
4268,	-1.1054949539,	0.0651255082,	-4.2500000000
4269,	-1.1016064584,	0.0486488328,	-4.5000000000
4270,	-1.0916691514,	0.0065415994,	-4.7500000000
4271,	-1.0836762689,	-0.0273265468,	-3.2500000000
4272,	-1.0836762689,	-0.0273265468,	-3.5000000000
4273,	-1.0836762689,	-0.0273265468,	-3.7500000000
4274,	-1.0836762689,	-0.0273265468,	-4.0000000000
4275,	-1.0836762689,	-0.0273265468,	-4.2500000000
4276,	-1.0836762689,	-0.0273265468,	-4.5000000000
4277,	-1.0836762689,	-0.0273265468,	-4.7500000000
4278,	-1.0756833864,	-0.0611946931,	-3.2500000000
4279,	-1.0657460793,	-0.1033019264,	-3.5000000000
4280,	-1.0618575839,	-0.1197786019,	-3.7500000000
4281,	-1.0607072436,	-0.1246529249,	-4.0000000000
4282,	-1.0618575839,	-0.1197786019,	-4.2500000000
4283,	-1.0657460793,	-0.1033019264,	-4.5000000000
4284,	-1.0756833864,	-0.0611946931,	-4.7500000000
4285,	-0.9243166136,	0.0480367983,	-3.2500000000
4286,	-0.9342539207,	0.0901440317,	-3.5000000000
4287,	-0.9381424161,	0.1066207071,	-3.7500000000
4288,	-0.9392927564,	0.1114950302,	-4.0000000000
4289,	-0.9381424161,	0.1066207071,	-4.2500000000
4290,	-0.9342539207,	0.0901440317,	-4.5000000000
4291,	-0.9243166136,	0.0480367983,	-4.7500000000
4292,	-0.9163237311,	0.0141686521,	-3.2500000000
4293,	-0.9163237311,	0.0141686521,	-3.5000000000
4294,	-0.9163237311,	0.0141686521,	-3.7500000000
4295,	-0.9163237311,	0.0141686521,	-4.0000000000
4296,	-0.9163237311,	0.0141686521,	-4.2500000000
4297,	-0.9163237311,	0.0141686521,	-4.5000000000
4298,	-0.9163237311,	0.0141686521,	-4.7500000000
4299,	-0.9083308486,	-0.0196994941,	-3.2500000000
4300,	-0.8983935416,	-0.0618067275,	-3.5000000000
4301,	-0.8945050461,	-0.0782834030,	-3.7500000000
4302,	-0.8933547059,	-0.0831577260,	-4.0000000000
4303,	-0.8945050461,	-0.0782834030,	-4.2500000000
4304,	-0.8983935416,	-0.0618067275,	-4.5000000000
4305,	-0.9083308486,	-0.0196994941,	-4.7500000000
4306,	-0.7473493462,	0.0877714809,	-3.2500000000
4307,	-0.7555656237,	0.1302480857,	-3.5000000000
4308,	-0.7587806756,	0.1468692972,	-3.7500000000
4309,	-0.7597317899,	0.1517863786,	-4.0000000000
4310,	-0.7587806756,	0.1468692972,	-4.2500000000
4311,	-0.7555656237,	0.1302480857,	-4.5000000000
4312,	-0.7473493462,	0.0877714809,	-4.7500000000
4313,	-0.7407407407,	0.0536062378,	-3.2500000000
4314,	-0.7407407407,	0.0536062378,	-3.5000000000
4315,	-0.7407407407,	0.0536062378,	-3.7500000000
4316,	-0.7407407407,	0.0536062378,	-4.0000000000
4317,	-0.7407407407,	0.0536062378,	-4.2500000000
4318,	-0.7407407407,	0.0536062378,	-4.5000000000
4319,	-0.7407407407,	0.0536062378,	-4.7500000000
4320,	-0.7341321353,	0.0194409947,	-3.2500000000
4321,	-0.7259158578,	-0.0230356101,	-3.5000000000
4322,	-0.7227008059,	-0.0396568216,	-3.7500000000
4323,	-0.7217496916,	-0.0445739030,	-4.0000000000
4324,	-0.7227008059,	-0.0396568216,	-4.2500000000
4325,	-0.7259158578,	-0.0230356101,	-4.5000000000
4326,	-0.7341321353,	0.0194409947,	-4.7500000000
4327,	-0.5448617734,	0.1213908062,	-3.2500000000
4328,	-0.5503264167,	0.1643082485,	-3.5000000000
4329,	-0.5524647465,	0.1811019609,	-3.7500000000
4330,	-0.5530973323,	0.1860700735,	-4.0000000000
4331,	-0.5524647465,	0.1811019609,	-4.2500000000
4332,	-0.5503264167,	0.1643082485,	-4.5000000000
4333,	-0.5448617734,	0.1213908062,	-4.7500000000
4334,	-0.5404663923,	0.0868709840,	-3.2500000000
4335,	-0.5404663923,	0.0868709840,	-3.5000000000
4336,	-0.5404663923,	0.0868709840,	-3.7500000000
4337,	-0.5404663923,	0.0868709840,	-4.0000000000
4338,	-0.5404663923,	0.0868709840,	-4.2500000000
4339,	-0.5404663923,	0.0868709840,	-4.5000000000
4340,	-0.5404663923,	0.0868709840,	-4.7500000000
4341,	-0.5360710112,	0.0523511618,	-3.2500000000
4342,	-0.5306063680,	0.0094337196,	-3.5000000000
4343,	-0.5284680381,	-0.0073599928,	-3.7500000000
4344,	-0.5278354524,	-0.0123281054,	-4.0000000000
4345,	-0.5284680381,	-0.0073599928,	-4.2500000000
4346,	-0.5306063680,	0.0094337196,	-4.5000000000
4347,	-0.5360710112,	0.0523511618,	-4.7500000000
4348,	-0.3010677143,	0.1445870511,	-3.2500000000
4349,	-0.3035889824,	0.1877774711,	-3.5000000000
4350,	-0.3045755616,	0.2046780004,	-3.7500000000
4351,	-0.3048674229,	0.2096777129,	-4.0000000000
4352,	-0.3045755616,	0.2046780004,	-4.2500000000
4353,	-0.3035889824,	0.1877774711,	-4.5000000000
4354,	-0.3010677143,	0.1445870511,	-4.7500000000
4355,	-0.2990397805,	0.1098476644,	-3.2500000000
4356,	-0.2990397805,	0.1098476644,	-3.5000000000
4357,	-0.2990397805,	0.1098476644,	-3.7500000000
4358,	-0.2990397805,	0.1098476644,	-4.0000000000
4359,	-0.2990397805,	0.1098476644,	-4.2500000000
4360,	-0.2990397805,	0.1098476644,	-4.5000000000
4361,	-0.2990397805,	0.1098476644,	-4.7500000000
4362,	-0.2970118468,	0.0751082778,	-3.2500000000
4363,	-0.2944905786,	0.0319178578,	-3.5000000000
4364,	-0.2935039995,	0.0150173284,	-3.7500000000
4365,	-0.2932121381,	0.0100176159,	-4.0000000000
4366,	-0.2935039995,	0.0150173284,	-4.2500000000
4367,	-0.2944905786,	0.0319178578,	-4.5000000000
4368,	-0.2970118468,	0.0751082778,	-4.7500000000
4369,	-0.0000000000,	0.1532195799,	-3.2500000000
4370,	-0.0000000000,	0.1964835276,	-3.5000000000
4371,	-0.0000000000,	0.2134128286,	-3.7500000000
4372,	-0.0000000000,	0.2184210526,	-4.0000000000
4373,	-0.0000000000,	0.2134128286,	-4.2500000000
4374,	-0.0000000000,	0.1964835276,	-4.5000000000
4375,	-0.0000000000,	0.1532195799,	-4.7500000000
4376,	-0.0000000000,	0.1184210526,	-3.2500000000
4377,	-0.0000000000,	0.1184210526,	-3.5000000000
4378,	-0.0000000000,	0.1184210526,	-3.7500000000
4379,	-0.0000000000,	0.1184210526,	-4.0000000000
4380,	-0.0000000000,	0.1184210526,	-4.2500000000
4381,	-0.0000000000,	0.1184210526,	-4.5000000000
4382,	-0.0000000000,	0.1184210526,	-4.7500000000
4383,	-0.0000000000,	0.0836225254,	-3.2500000000
4384,	-0.0000000000,	0.0403585777,	-3.5000000000
4385,	-0.0000000000,	0.0234292767,	-3.7500000000
4386,	-0.0000000000,	0.0184210526,	-4.0000000000
4387,	-0.0000000000,	0.0234292767,	-4.2500000000
4388,	-0.0000000000,	0.0403585777,	-4.5000000000
4389,	-0.0000000000,	0.0836225254,	-4.7500000000
4390,	-0.0000000000,	0.1532195799,	-3.2500000000
4391,	-0.0000000000,	0.1964835276,	-3.5000000000
4392,	-0.0000000000,	0.2134128286,	-3.7500000000
4393,	-0.0000000000,	0.2184210526,	-4.0000000000
4394,	-0.0000000000,	0.2134128286,	-4.2500000000
4395,	-0.0000000000,	0.1964835276,	-4.5000000000
4396,	-0.0000000000,	0.1532195799,	-4.7500000000
4397,	-0.0000000000,	0.1184210526,	-3.2500000000
4398,	-0.0000000000,	0.1184210526,	-3.5000000000
4399,	-0.0000000000,	0.1184210526,	-3.7500000000
4400,	-0.0000000000,	0.1184210526,	-4.0000000000
4401,	-0.0000000000,	0.1184210526,	-4.2500000000
4402,	-0.0000000000,	0.1184210526,	-4.5000000000
4403,	-0.0000000000,	0.1184210526,	-4.7500000000
4404,	-0.0000000000,	0.0836225254,	-3.2500000000
4405,	-0.0000000000,	0.0403585777,	-3.5000000000
4406,	-0.0000000000,	0.0234292767,	-3.7500000000
4407,	-0.0000000000,	0.0184210526,	-4.0000000000
4408,	-0.0000000000,	0.0234292767,	-4.2500000000
4409,	-0.0000000000,	0.0403585777,	-4.5000000000
4410,	-0.0000000000,	0.0836225254,	-4.7500000000
4411,	0.3010677143,	0.1445870511,	-3.2500000000
4412,	0.3035889824,	0.1877774711,	-3.5000000000
4413,	0.3045755616,	0.2046780004,	-3.7500000000
4414,	0.3048674229,	0.2096777129,	-4.0000000000
4415,	0.3045755616,	0.2046780004,	-4.2500000000
4416,	0.3035889824,	0.1877774711,	-4.5000000000
4417,	0.3010677143,	0.1445870511,	-4.7500000000
4418,	0.2990397805,	0.1098476644,	-3.2500000000
4419,	0.2990397805,	0.1098476644,	-3.5000000000
4420,	0.2990397805,	0.1098476644,	-3.7500000000
4421,	0.2990397805,	0.1098476644,	-4.0000000000
4422,	0.2990397805,	0.1098476644,	-4.2500000000
4423,	0.2990397805,	0.1098476644,	-4.5000000000
4424,	0.2990397805,	0.1098476644,	-4.7500000000
4425,	0.2970118468,	0.0751082778,	-3.2500000000
4426,	0.2944905786,	0.0319178578,	-3.5000000000
4427,	0.2935039995,	0.0150173284,	-3.7500000000
4428,	0.2932121381,	0.0100176159,	-4.0000000000
4429,	0.2935039995,	0.0150173284,	-4.2500000000
4430,	0.2944905786,	0.0319178578,	-4.5000000000
4431,	0.2970118468,	0.0751082778,	-4.7500000000
4432,	0.5448617734,	0.1213908062,	-3.2500000000
4433,	0.5503264167,	0.1643082485,	-3.5000000000
4434,	0.5524647465,	0.1811019609,	-3.7500000000
4435,	0.5530973323,	0.1860700735,	-4.0000000000
4436,	0.5524647465,	0.1811019609,	-4.2500000000
4437,	0.5503264167,	0.1643082485,	-4.5000000000
4438,	0.5448617734,	0.1213908062,	-4.7500000000
4439,	0.5404663923,	0.0868709840,	-3.2500000000
4440,	0.5404663923,	0.0868709840,	-3.5000000000
4441,	0.5404663923,	0.0868709840,	-3.7500000000
4442,	0.5404663923,	0.0868709840,	-4.0000000000
4443,	0.5404663923,	0.0868709840,	-4.2500000000
4444,	0.5404663923,	0.0868709840,	-4.5000000000
4445,	0.5404663923,	0.0868709840,	-4.7500000000
4446,	0.5360710112,	0.0523511618,	-3.2500000000
4447,	0.5306063680,	0.0094337196,	-3.5000000000
4448,	0.5284680381,	-0.0073599928,	-3.7500000000
4449,	0.5278354524,	-0.0123281054,	-4.0000000000
4450,	0.5284680381,	-0.0073599928,	-4.2500000000
4451,	0.5306063680,	0.0094337196,	-4.5000000000
4452,	0.5360710112,	0.0523511618,	-4.7500000000
4453,	0.7473493462,	0.0877714809,	-3.2500000000
4454,	0.7555656237,	0.1302480857,	-3.5000000000
4455,	0.7587806756,	0.1468692972,	-3.7500000000
4456,	0.7597317899,	0.1517863786,	-4.0000000000
4457,	0.7587806756,	0.1468692972,	-4.2500000000
4458,	0.7555656237,	0.1302480857,	-4.5000000000
4459,	0.7473493462,	0.0877714809,	-4.7500000000
4460,	0.7407407407,	0.0536062378,	-3.2500000000
4461,	0.7407407407,	0.0536062378,	-3.5000000000
4462,	0.7407407407,	0.0536062378,	-3.7500000000
4463,	0.7407407407,	0.0536062378,	-4.0000000000
4464,	0.7407407407,	0.0536062378,	-4.2500000000
4465,	0.7407407407,	0.0536062378,	-4.5000000000
4466,	0.7407407407,	0.0536062378,	-4.7500000000
4467,	0.7341321353,	0.0194409947,	-3.2500000000
4468,	0.7259158578,	-0.0230356101,	-3.5000000000
4469,	0.7227008059,	-0.0396568216,	-3.7500000000
4470,	0.7217496916,	-0.0445739030,	-4.0000000000
4471,	0.7227008059,	-0.0396568216,	-4.2500000000
4472,	0.7259158578,	-0.0230356101,	-4.5000000000
4473,	0.7341321353,	0.0194409947,	-4.7500000000
4474,	0.9243166136,	0.0480367983,	-3.2500000000
4475,	0.9342539207,	0.0901440317,	-3.5000000000
4476,	0.9381424161,	0.1066207071,	-3.7500000000
4477,	0.9392927564,	0.1114950302,	-4.0000000000
4478,	0.9381424161,	0.1066207071,	-4.2500000000
4479,	0.9342539207,	0.0901440317,	-4.5000000000
4480,	0.9243166136,	0.0480367983,	-4.7500000000
4481,	0.9163237311,	0.0141686521,	-3.2500000000
4482,	0.9163237311,	0.0141686521,	-3.5000000000
4483,	0.9163237311,	0.0141686521,	-3.7500000000
4484,	0.9163237311,	0.0141686521,	-4.0000000000
4485,	0.9163237311,	0.0141686521,	-4.2500000000
4486,	0.9163237311,	0.0141686521,	-4.5000000000
4487,	0.9163237311,	0.0141686521,	-4.7500000000
4488,	0.9083308486,	-0.0196994941,	-3.2500000000
4489,	0.8983935416,	-0.0618067275,	-3.5000000000
4490,	0.8945050461,	-0.0782834030,	-3.7500000000
4491,	0.8933547059,	-0.0831577260,	-4.0000000000
4492,	0.8945050461,	-0.0782834030,	-4.2500000000
4493,	0.8983935416,	-0.0618067275,	-4.5000000000
4494,	0.9083308486,	-0.0196994941,	-4.7500000000
4495,	1.0916691514,	0.0065415994,	-3.2500000000
4496,	1.1016064584,	0.0486488328,	-3.5000000000
4497,	1.1054949539,	0.0651255082,	-3.7500000000
4498,	1.1066452941,	0.0699998313,	-4.0000000000
4499,	1.1054949539,	0.0651255082,	-4.2500000000
4500,	1.1016064584,	0.0486488328,	-4.5000000000
4501,	1.0916691514,	0.0065415994,	-4.7500000000
4502,	1.0836762689,	-0.0273265468,	-3.2500000000
4503,	1.0836762689,	-0.0273265468,	-3.5000000000
4504,	1.0836762689,	-0.0273265468,	-3.7500000000
4505,	1.0836762689,	-0.0273265468,	-4.0000000000
4506,	1.0836762689,	-0.0273265468,	-4.2500000000
4507,	1.0836762689,	-0.0273265468,	-4.5000000000
4508,	1.0836762689,	-0.0273265468,	-4.7500000000
4509,	1.0756833864,	-0.0611946931,	-3.2500000000
4510,	1.0657460793,	-0.1033019264,	-3.5000000000
4511,	1.0618575839,	-0.1197786019,	-3.7500000000
4512,	1.0607072436,	-0.1246529249,	-4.0000000000
4513,	1.0618575839,	-0.1197786019,	-4.2500000000
4514,	1.0657460793,	-0.1033019264,	-4.5000000000
4515,	1.0756833864,	-0.0611946931,	-4.7500000000
4516,	1.2658678647,	-0.0325988895,	-3.2500000000
4517,	1.2740841422,	0.0098777153,	-3.5000000000
4518,	1.2772991941,	0.0264989269,	-3.7500000000
4519,	1.2782503084,	0.0314160083,	-4.0000000000
4520,	1.2772991941,	0.0264989269,	-4.2500000000
4521,	1.2740841422,	0.0098777153,	-4.5000000000
4522,	1.2658678647,	-0.0325988895,	-4.7500000000
4523,	1.2592592593,	-0.0667641326,	-3.2500000000
4524,	1.2592592593,	-0.0667641326,	-3.5000000000
4525,	1.2592592593,	-0.0667641326,	-3.7500000000
4526,	1.2592592593,	-0.0667641326,	-4.0000000000
4527,	1.2592592593,	-0.0667641326,	-4.2500000000
4528,	1.2592592593,	-0.0667641326,	-4.5000000000
4529,	1.2592592593,	-0.0667641326,	-4.7500000000
4530,	1.2526506538,	-0.1009293756,	-3.2500000000
4531,	1.2444343763,	-0.1434059804,	-3.5000000000
4532,	1.2412193244,	-0.1600271920,	-3.7500000000
4533,	1.2402682101,	-0.1649442734,	-4.0000000000
4534,	1.2412193244,	-0.1600271920,	-4.2500000000
4535,	1.2444343763,	-0.1434059804,	-4.5000000000
4536,	1.2526506538,	-0.1009293756,	-4.7500000000
4537,	1.4639289888,	-0.0655090566,	-3.2500000000
4538,	1.4693936320,	-0.0225916144,	-3.5000000000
4539,	1.4715319619,	-0.0057979019,	-3.7500000000
4540,	1.4721645476,	-0.0008297893,	-4.0000000000
4541,	1.4715319619,	-0.0057979019,	-4.2500000000
4542,	1.4693936320,	-0.0225916144,	-4.5000000000
4543,	1.4639289888,	-0.0655090566,	-4.7500000000
4544,	1.4595336077,	-0.1000288788,	-3.2500000000
4545,	1.4595336077,	-0.1000288788,	-3.5000000000
4546,	1.4595336077,	-0.1000288788,	-3.7500000000
4547,	1.4595336077,	-0.1000288788,	-4.0000000000
4548,	1.4595336077,	-0.1000288788,	-4.2500000000
4549,	1.4595336077,	-0.1000288788,	-4.5000000000
4550,	1.4595336077,	-0.1000288788,	-4.7500000000
4551,	1.4551382266,	-0.1345487010,	-3.2500000000
4552,	1.4496735833,	-0.1774661432,	-3.5000000000
4553,	1.4475352535,	-0.1942598556,	-3.7500000000
4554,	1.4469026677,	-0.1992279683,	-4.0000000000
4555,	1.4475352535,	-0.1942598556,	-4.2500000000
4556,	1.4496735833,	-0.1774661432,	-4.5000000000
4557,	1.4551382266,	-0.1345487010,	-4.7500000000
4558,	1.7029881532,	-0.0882661725,	-3.2500000000
4559,	1.7055094214,	-0.0450757525,	-3.5000000000
4560,	1.7064960005,	-0.0281752232,	-3.7500000000
4561,	1.7067878619,	-0.0231755107,	-4.0000000000
4562,	1.7064960005,	-0.0281752232,	-4.2500000000
4563,	1.7055094214,	-0.0450757525,	-4.5000000000
4564,	1.7029881532,	-0.0882661725,	-4.7500000000
4565,	1.7009602195,	-0.1230055592,	-3.2500000000
4566,	1.7009602195,	-0.1230055592,	-3.5000000000
4567,	1.7009602195,	-0.1230055592,	-3.7500000000
4568,	1.7009602195,	-0.1230055592,	-4.0000000000
4569,	1.7009602195,	-0.1230055592,	-4.2500000000
4570,	1.7009602195,	-0.1230055592,	-4.5000000000
4571,	1.7009602195,	-0.1230055592,	-4.7500000000
4572,	1.6989322857,	-0.1577449458,	-3.2500000000
4573,	1.6964110176,	-0.2009353658,	-3.5000000000
4574,	1.6954244384,	-0.2178358952,	-3.7500000000
4575,	1.6951325771,	-0.2228356077,	-4.0000000000
4576,	1.6954244384,	-0.2178358952,	-4.2500000000
4577,	1.6964110176,	-0.2009353658,	-4.5000000000
4578,	1.6989322857,	-0.1577449458,	-4.7500000000
4579,	2.0000000000,	-0.0967804201,	-3.2500000000
4580,	2.0000000000,	-0.0535164724,	-3.5000000000
4581,	2.0000000000,	-0.0365871714,	-3.7500000000
4582,	2.0000000000,	-0.0315789474,	-4.0000000000
4583,	2.0000000000,	-0.0365871714,	-4.2500000000
4584,	2.0000000000,	-0.0535164724,	-4.5000000000
4585,	2.0000000000,	-0.0967804201,	-4.7500000000
4586,	2.0000000000,	-0.1315789474,	-3.2500000000
4587,	2.0000000000,	-0.1315789474,	-3.5000000000
4588,	2.0000000000,	-0.1315789474,	-3.7500000000
4589,	2.0000000000,	-0.1315789474,	-4.0000000000
4590,	2.0000000000,	-0.1315789474,	-4.2500000000
4591,	2.0000000000,	-0.1315789474,	-4.5000000000
4592,	2.0000000000,	-0.1315789474,	-4.7500000000
4593,	2.0000000000,	-0.1663774746,	-3.2500000000
4594,	2.0000000000,	-0.2096414223,	-3.5000000000
4595,	2.0000000000,	-0.2265707233,	-3.7500000000
4596,	2.0000000000,	-0.2315789474,	-4.0000000000
4597,	2.0000000000,	-0.2265707233,	-4.2500000000
4598,	2.0000000000,	-0.2096414223,	-4.5000000000
4599,	2.0000000000,	-0.1663774746,	-4.7500000000
4600,	2.2970118468,	-0.0882661725,	-3.2500000000
4601,	2.2944905786,	-0.0450757525,	-3.5000000000
4602,	2.2935039995,	-0.0281752232,	-3.7500000000
4603,	2.2932121381,	-0.0231755107,	-4.0000000000
4604,	2.2935039995,	-0.0281752232,	-4.2500000000
4605,	2.2944905786,	-0.0450757525,	-4.5000000000
4606,	2.2970118468,	-0.0882661725,	-4.7500000000
4607,	2.2990397805,	-0.1230055592,	-3.2500000000
4608,	2.2990397805,	-0.1230055592,	-3.5000000000
4609,	2.2990397805,	-0.1230055592,	-3.7500000000
4610,	2.2990397805,	-0.1230055592,	-4.0000000000
4611,	2.2990397805,	-0.1230055592,	-4.2500000000
4612,	2.2990397805,	-0.1230055592,	-4.5000000000
4613,	2.2990397805,	-0.1230055592,	-4.7500000000
4614,	2.3010677143,	-0.1577449458,	-3.2500000000
4615,	2.3035889824,	-0.2009353658,	-3.5000000000
4616,	2.3045755616,	-0.2178358952,	-3.7500000000
4617,	2.3048674229,	-0.2228356077,	-4.0000000000
4618,	2.3045755616,	-0.2178358952,	-4.2500000000
4619,	2.3035889824,	-0.2009353658,	-4.5000000000
4620,	2.3010677143,	-0.1577449458,	-4.7500000000
4621,	2.5360710112,	-0.0655090566,	-3.2500000000
4622,	2.5306063680,	-0.0225916144,	-3.5000000000
4623,	2.5284680381,	-0.0057979019,	-3.7500000000
4624,	2.5278354524,	-0.0008297893,	-4.0000000000
4625,	2.5284680381,	-0.0057979019,	-4.2500000000
4626,	2.5306063680,	-0.0225916144,	-4.5000000000
4627,	2.5360710112,	-0.0655090566,	-4.7500000000
4628,	2.5404663923,	-0.1000288788,	-3.2500000000
4629,	2.5404663923,	-0.1000288788,	-3.5000000000
4630,	2.5404663923,	-0.1000288788,	-3.7500000000
4631,	2.5404663923,	-0.1000288788,	-4.0000000000
4632,	2.5404663923,	-0.1000288788,	-4.2500000000
4633,	2.5404663923,	-0.1000288788,	-4.5000000000
4634,	2.5404663923,	-0.1000288788,	-4.7500000000
4635,	2.5448617734,	-0.1345487010,	-3.2500000000
4636,	2.5503264167,	-0.1774661432,	-3.5000000000
4637,	2.5524647465,	-0.1942598556,	-3.7500000000
4638,	2.5530973323,	-0.1992279683,	-4.0000000000
4639,	2.5524647465,	-0.1942598556,	-4.2500000000
4640,	2.5503264167,	-0.1774661432,	-4.5000000000
4641,	2.5448617734,	-0.1345487010,	-4.7500000000
4642,	2.7341321353,	-0.0325988895,	-3.2500000000
4643,	2.7259158578,	0.0098777153,	-3.5000000000
4644,	2.7227008059,	0.0264989269,	-3.7500000000
4645,	2.7217496916,	0.0314160083,	-4.0000000000
4646,	2.7227008059,	0.0264989269,	-4.2500000000
4647,	2.7259158578,	0.0098777153,	-4.5000000000
4648,	2.7341321353,	-0.0325988895,	-4.7500000000
4649,	2.7407407407,	-0.0667641326,	-3.2500000000
4650,	2.7407407407,	-0.0667641326,	-3.5000000000
4651,	2.7407407407,	-0.0667641326,	-3.7500000000
4652,	2.7407407407,	-0.0667641326,	-4.0000000000
4653,	2.7407407407,	-0.0667641326,	-4.2500000000
4654,	2.7407407407,	-0.0667641326,	-4.5000000000
4655,	2.7407407407,	-0.0667641326,	-4.7500000000
4656,	2.7473493462,	-0.1009293756,	-3.2500000000
4657,	2.7555656237,	-0.1434059804,	-3.5000000000
4658,	2.7587806756,	-0.1600271920,	-3.7500000000
4659,	2.7597317899,	-0.1649442734,	-4.0000000000
4660,	2.7587806756,	-0.1600271920,	-4.2500000000
4661,	2.7555656237,	-0.1434059804,	-4.5000000000
4662,	2.7473493462,	-0.1009293756,	-4.7500000000
4663,	2.9083308486,	0.0065415994,	-3.2500000000
4664,	2.8983935416,	0.0486488328,	-3.5000000000
4665,	2.8945050461,	0.0651255082,	-3.7500000000
4666,	2.8933547059,	0.0699998313,	-4.0000000000
4667,	2.8945050461,	0.0651255082,	-4.2500000000
4668,	2.8983935416,	0.0486488328,	-4.5000000000
4669,	2.9083308486,	0.0065415994,	-4.7500000000
4670,	2.9163237311,	-0.0273265468,	-3.2500000000
4671,	2.9163237311,	-0.0273265468,	-3.5000000000
4672,	2.9163237311,	-0.0273265468,	-3.7500000000
4673,	2.9163237311,	-0.0273265468,	-4.0000000000
4674,	2.9163237311,	-0.0273265468,	-4.2500000000
4675,	2.9163237311,	-0.0273265468,	-4.5000000000
4676,	2.9163237311,	-0.0273265468,	-4.7500000000
4677,	2.9243166136,	-0.0611946931,	-3.2500000000
4678,	2.9342539207,	-0.1033019264,	-3.5000000000
4679,	2.9381424161,	-0.1197786019,	-3.7500000000
4680,	2.9392927564,	-0.1246529249,	-4.0000000000
4681,	2.9381424161,	-0.1197786019,	-4.2500000000
4682,	2.9342539207,	-0.1033019264,	-4.5000000000
4683,	2.9243166136,	-0.0611946931,	-4.7500000000
4684,	3.0756833864,	0.0480367983,	-3.2500000000
4685,	3.0657460793,	0.0901440317,	-3.5000000000
4686,	3.0618575839,	0.1066207071,	-3.7500000000
4687,	3.0607072436,	0.1114950302,	-4.0000000000
4688,	3.0618575839,	0.1066207071,	-4.2500000000
4689,	3.0657460793,	0.0901440317,	-4.5000000000
4690,	3.0756833864,	0.0480367983,	-4.7500000000
4691,	3.0836762689,	0.0141686521,	-3.2500000000
4692,	3.0836762689,	0.0141686521,	-3.5000000000
4693,	3.0836762689,	0.0141686521,	-3.7500000000
4694,	3.0836762689,	0.0141686521,	-4.0000000000
4695,	3.0836762689,	0.0141686521,	-4.2500000000
4696,	3.0836762689,	0.0141686521,	-4.5000000000
4697,	3.0836762689,	0.0141686521,	-4.7500000000
4698,	3.0916691514,	-0.0196994941,	-3.2500000000
4699,	3.1016064584,	-0.0618067275,	-3.5000000000
4700,	3.1054949539,	-0.0782834030,	-3.7500000000
4701,	3.1066452941,	-0.0831577260,	-4.0000000000
4702,	3.1054949539,	-0.0782834030,	-4.2500000000
4703,	3.1016064584,	-0.0618067275,	-4.5000000000
4704,	3.0916691514,	-0.0196994941,	-4.7500000000
4705,	3.2526506538,	0.0877714809,	-3.2500000000
4706,	3.2444343763,	0.1302480857,	-3.5000000000
4707,	3.2412193244,	0.1468692972,	-3.7500000000
4708,	3.2402682101,	0.1517863786,	-4.0000000000
4709,	3.2412193244,	0.1468692972,	-4.2500000000
4710,	3.2444343763,	0.1302480857,	-4.5000000000
4711,	3.2526506538,	0.0877714809,	-4.7500000000
4712,	3.2592592593,	0.0536062378,	-3.2500000000
4713,	3.2592592593,	0.0536062378,	-3.5000000000
4714,	3.2592592593,	0.0536062378,	-3.7500000000
4715,	3.2592592593,	0.0536062378,	-4.0000000000
4716,	3.2592592593,	0.0536062378,	-4.2500000000
4717,	3.2592592593,	0.0536062378,	-4.5000000000
4718,	3.2592592593,	0.0536062378,	-4.7500000000
4719,	3.2658678647,	0.0194409947,	-3.2500000000
4720,	3.2740841422,	-0.0230356101,	-3.5000000000
4721,	3.2772991941,	-0.0396568216,	-3.7500000000
4722,	3.2782503084,	-0.0445739030,	-4.0000000000
4723,	3.2772991941,	-0.0396568216,	-4.2500000000
4724,	3.2740841422,	-0.0230356101,	-4.5000000000
4725,	3.2658678647,	0.0194409947,	-4.7500000000
4726,	3.4551382266,	0.1213908062,	-3.2500000000
4727,	3.4496735833,	0.1643082485,	-3.5000000000
4728,	3.4475352535,	0.1811019609,	-3.7500000000
4729,	3.4469026677,	0.1860700735,	-4.0000000000
4730,	3.4475352535,	0.1811019609,	-4.2500000000
4731,	3.4496735833,	0.1643082485,	-4.5000000000
4732,	3.4551382266,	0.1213908062,	-4.7500000000
4733,	3.4595336077,	0.0868709840,	-3.2500000000
4734,	3.4595336077,	0.0868709840,	-3.5000000000
4735,	3.4595336077,	0.0868709840,	-3.7500000000
4736,	3.4595336077,	0.0868709840,	-4.0000000000
4737,	3.4595336077,	0.0868709840,	-4.2500000000
4738,	3.4595336077,	0.0868709840,	-4.5000000000
4739,	3.4595336077,	0.0868709840,	-4.7500000000
4740,	3.4639289888,	0.0523511618,	-3.2500000000
4741,	3.4693936320,	0.0094337196,	-3.5000000000
4742,	3.4715319619,	-0.0073599928,	-3.7500000000
4743,	3.4721645476,	-0.0123281054,	-4.0000000000
4744,	3.4715319619,	-0.0073599928,	-4.2500000000
4745,	3.4693936320,	0.0094337196,	-4.5000000000
4746,	3.4639289888,	0.0523511618,	-4.7500000000
4747,	3.6989322857,	0.1445870511,	-3.2500000000
4748,	3.6964110176,	0.1877774711,	-3.5000000000
4749,	3.6954244384,	0.2046780004,	-3.7500000000
4750,	3.6951325771,	0.2096777129,	-4.0000000000
4751,	3.6954244384,	0.2046780004,	-4.2500000000
4752,	3.6964110176,	0.1877774711,	-4.5000000000
4753,	3.6989322857,	0.1445870511,	-4.7500000000
4754,	3.7009602195,	0.1098476644,	-3.2500000000
4755,	3.7009602195,	0.1098476644,	-3.5000000000
4756,	3.7009602195,	0.1098476644,	-3.7500000000
4757,	3.7009602195,	0.1098476644,	-4.0000000000
4758,	3.7009602195,	0.1098476644,	-4.2500000000
4759,	3.7009602195,	0.1098476644,	-4.5000000000
4760,	3.7009602195,	0.1098476644,	-4.7500000000
4761,	3.7029881532,	0.0751082778,	-3.2500000000
4762,	3.7055094214,	0.0319178578,	-3.5000000000
4763,	3.7064960005,	0.0150173284,	-3.7500000000
4764,	3.7067878619,	0.0100176159,	-4.0000000000
4765,	3.7064960005,	0.0150173284,	-4.2500000000
4766,	3.7055094214,	0.0319178578,	-4.5000000000
4767,	3.7029881532,	0.0751082778,	-4.7500000000
4768,	4.0000000000,	0.1532195799,	-3.2500000000
4769,	4.0000000000,	0.1964835276,	-3.5000000000
4770,	4.0000000000,	0.2134128286,	-3.7500000000
4771,	4.0000000000,	0.2184210526,	-4.0000000000
4772,	4.0000000000,	0.2134128286,	-4.2500000000
4773,	4.0000000000,	0.1964835276,	-4.5000000000
4774,	4.0000000000,	0.1532195799,	-4.7500000000
4775,	4.0000000000,	0.1184210526,	-3.2500000000
4776,	4.0000000000,	0.1184210526,	-3.5000000000
4777,	4.0000000000,	0.1184210526,	-3.7500000000
4778,	4.0000000000,	0.1184210526,	-4.0000000000
4779,	4.0000000000,	0.1184210526,	-4.2500000000
4780,	4.0000000000,	0.1184210526,	-4.5000000000
4781,	4.0000000000,	0.1184210526,	-4.7500000000
4782,	4.0000000000,	0.0836225254,	-3.2500000000
4783,	4.0000000000,	0.0403585777,	-3.5000000000
4784,	4.0000000000,	0.0234292767,	-3.7500000000
4785,	4.0000000000,	0.0184210526,	-4.0000000000
4786,	4.0000000000,	0.0234292767,	-4.2500000000
4787,	4.0000000000,	0.0403585777,	-4.5000000000
4788,	4.0000000000,	0.0836225254,	-4.7500000000
4789,	-4.0000000000,	-0.0836225254,	-1.2500000000
4790,	-4.0000000000,	-0.0403585777,	-1.5000000000
4791,	-4.0000000000,	-0.0234292767,	-1.7500000000
4792,	-4.0000000000,	-0.0184210526,	-2.0000000000
4793,	-4.0000000000,	-0.0234292767,	-2.2500000000
4794,	-4.0000000000,	-0.0403585777,	-2.5000000000
4795,	-4.0000000000,	-0.0836225254,	-2.7500000000
4796,	-4.0000000000,	-0.1184210526,	-1.2500000000
4797,	-4.0000000000,	-0.1184210526,	-1.5000000000
4798,	-4.0000000000,	-0.1184210526,	-1.7500000000
4799,	-4.0000000000,	-0.1184210526,	-2.0000000000
4800,	-4.0000000000,	-0.1184210526,	-2.2500000000
4801,	-4.0000000000,	-0.1184210526,	-2.5000000000
4802,	-4.0000000000,	-0.1184210526,	-2.7500000000
4803,	-4.0000000000,	-0.1532195799,	-1.2500000000
4804,	-4.0000000000,	-0.1964835276,	-1.5000000000
4805,	-4.0000000000,	-0.2134128286,	-1.7500000000
4806,	-4.0000000000,	-0.2184210526,	-2.0000000000
4807,	-4.0000000000,	-0.2134128286,	-2.2500000000
4808,	-4.0000000000,	-0.1964835276,	-2.5000000000
4809,	-4.0000000000,	-0.1532195799,	-2.7500000000
4810,	-3.7029881532,	-0.0751082778,	-1.2500000000
4811,	-3.7055094214,	-0.0319178578,	-1.5000000000
4812,	-3.7064960005,	-0.0150173284,	-1.7500000000
4813,	-3.7067878619,	-0.0100176159,	-2.0000000000
4814,	-3.7064960005,	-0.0150173284,	-2.2500000000
4815,	-3.7055094214,	-0.0319178578,	-2.5000000000
4816,	-3.7029881532,	-0.0751082778,	-2.7500000000
4817,	-3.7009602195,	-0.1098476644,	-1.2500000000
4818,	-3.7009602195,	-0.1098476644,	-1.5000000000
4819,	-3.7009602195,	-0.1098476644,	-1.7500000000
4820,	-3.7009602195,	-0.1098476644,	-2.0000000000
4821,	-3.7009602195,	-0.1098476644,	-2.2500000000
4822,	-3.7009602195,	-0.1098476644,	-2.5000000000
4823,	-3.7009602195,	-0.1098476644,	-2.7500000000
4824,	-3.6989322857,	-0.1445870511,	-1.2500000000
4825,	-3.6964110176,	-0.1877774711,	-1.5000000000
4826,	-3.6954244384,	-0.2046780004,	-1.7500000000
4827,	-3.6951325771,	-0.2096777129,	-2.0000000000
4828,	-3.6954244384,	-0.2046780004,	-2.2500000000
4829,	-3.6964110176,	-0.1877774711,	-2.5000000000
4830,	-3.6989322857,	-0.1445870511,	-2.7500000000
4831,	-3.4639289888,	-0.0523511618,	-1.2500000000
4832,	-3.4693936320,	-0.0094337196,	-1.5000000000
4833,	-3.4715319619,	0.0073599928,	-1.7500000000
4834,	-3.4721645476,	0.0123281054,	-2.0000000000
4835,	-3.4715319619,	0.0073599928,	-2.2500000000
4836,	-3.4693936320,	-0.0094337196,	-2.5000000000
4837,	-3.4639289888,	-0.0523511618,	-2.7500000000
4838,	-3.4595336077,	-0.0868709840,	-1.2500000000
4839,	-3.4595336077,	-0.0868709840,	-1.5000000000
4840,	-3.4595336077,	-0.0868709840,	-1.7500000000
4841,	-3.4595336077,	-0.0868709840,	-2.0000000000
4842,	-3.4595336077,	-0.0868709840,	-2.2500000000
4843,	-3.4595336077,	-0.0868709840,	-2.5000000000
4844,	-3.4595336077,	-0.0868709840,	-2.7500000000
4845,	-3.4551382266,	-0.1213908062,	-1.2500000000
4846,	-3.4496735833,	-0.1643082485,	-1.5000000000
4847,	-3.4475352535,	-0.1811019609,	-1.7500000000
4848,	-3.4469026677,	-0.1860700735,	-2.0000000000
4849,	-3.4475352535,	-0.1811019609,	-2.2500000000
4850,	-3.4496735833,	-0.1643082485,	-2.5000000000
4851,	-3.4551382266,	-0.1213908062,	-2.7500000000
4852,	-3.2658678647,	-0.0194409947,	-1.2500000000
4853,	-3.2740841422,	0.0230356101,	-1.5000000000
4854,	-3.2772991941,	0.0396568216,	-1.7500000000
4855,	-3.2782503084,	0.0445739030,	-2.0000000000
4856,	-3.2772991941,	0.0396568216,	-2.2500000000
4857,	-3.2740841422,	0.0230356101,	-2.5000000000
4858,	-3.2658678647,	-0.0194409947,	-2.7500000000
4859,	-3.2592592593,	-0.0536062378,	-1.2500000000
4860,	-3.2592592593,	-0.0536062378,	-1.5000000000
4861,	-3.2592592593,	-0.0536062378,	-1.7500000000
4862,	-3.2592592593,	-0.0536062378,	-2.0000000000
4863,	-3.2592592593,	-0.0536062378,	-2.2500000000
4864,	-3.2592592593,	-0.0536062378,	-2.5000000000
4865,	-3.2592592593,	-0.0536062378,	-2.7500000000
4866,	-3.2526506538,	-0.0877714809,	-1.2500000000
4867,	-3.2444343763,	-0.1302480857,	-1.5000000000
4868,	-3.2412193244,	-0.1468692972,	-1.7500000000
4869,	-3.2402682101,	-0.1517863786,	-2.0000000000
4870,	-3.2412193244,	-0.1468692972,	-2.2500000000
4871,	-3.2444343763,	-0.1302480857,	-2.5000000000
4872,	-3.2526506538,	-0.0877714809,	-2.7500000000
4873,	-3.0916691514,	0.0196994941,	-1.2500000000
4874,	-3.1016064584,	0.0618067275,	-1.5000000000
4875,	-3.1054949539,	0.0782834030,	-1.7500000000
4876,	-3.1066452941,	0.0831577260,	-2.0000000000
4877,	-3.1054949539,	0.0782834030,	-2.2500000000
4878,	-3.1016064584,	0.0618067275,	-2.5000000000
4879,	-3.0916691514,	0.0196994941,	-2.7500000000
4880,	-3.0836762689,	-0.0141686521,	-1.2500000000
4881,	-3.0836762689,	-0.0141686521,	-1.5000000000
4882,	-3.0836762689,	-0.0141686521,	-1.7500000000
4883,	-3.0836762689,	-0.0141686521,	-2.0000000000
4884,	-3.0836762689,	-0.0141686521,	-2.2500000000
4885,	-3.0836762689,	-0.0141686521,	-2.5000000000
4886,	-3.0836762689,	-0.0141686521,	-2.7500000000
4887,	-3.0756833864,	-0.0480367983,	-1.2500000000
4888,	-3.0657460793,	-0.0901440317,	-1.5000000000
4889,	-3.0618575839,	-0.1066207071,	-1.7500000000
4890,	-3.0607072436,	-0.1114950302,	-2.0000000000
4891,	-3.0618575839,	-0.1066207071,	-2.2500000000
4892,	-3.0657460793,	-0.0901440317,	-2.5000000000
4893,	-3.0756833864,	-0.0480367983,	-2.7500000000
4894,	-2.9243166136,	0.0611946931,	-1.2500000000
4895,	-2.9342539207,	0.1033019264,	-1.5000000000
4896,	-2.9381424161,	0.1197786019,	-1.7500000000
4897,	-2.9392927564,	0.1246529249,	-2.0000000000
4898,	-2.9381424161,	0.1197786019,	-2.2500000000
4899,	-2.9342539207,	0.1033019264,	-2.5000000000
4900,	-2.9243166136,	0.0611946931,	-2.7500000000
4901,	-2.9163237311,	0.0273265468,	-1.2500000000
4902,	-2.9163237311,	0.0273265468,	-1.5000000000
4903,	-2.9163237311,	0.0273265468,	-1.7500000000
4904,	-2.9163237311,	0.0273265468,	-2.0000000000
4905,	-2.9163237311,	0.0273265468,	-2.2500000000
4906,	-2.9163237311,	0.0273265468,	-2.5000000000
4907,	-2.9163237311,	0.0273265468,	-2.7500000000
4908,	-2.9083308486,	-0.0065415994,	-1.2500000000
4909,	-2.8983935416,	-0.0486488328,	-1.5000000000
4910,	-2.8945050461,	-0.0651255082,	-1.7500000000
4911,	-2.8933547059,	-0.0699998313,	-2.0000000000
4912,	-2.8945050461,	-0.0651255082,	-2.2500000000
4913,	-2.8983935416,	-0.0486488328,	-2.5000000000
4914,	-2.9083308486,	-0.0065415994,	-2.7500000000
4915,	-2.7473493462,	0.1009293756,	-1.2500000000
4916,	-2.7555656237,	0.1434059804,	-1.5000000000
4917,	-2.7587806756,	0.1600271920,	-1.7500000000
4918,	-2.7597317899,	0.1649442734,	-2.0000000000
4919,	-2.7587806756,	0.1600271920,	-2.2500000000
4920,	-2.7555656237,	0.1434059804,	-2.5000000000
4921,	-2.7473493462,	0.1009293756,	-2.7500000000
4922,	-2.7407407407,	0.0667641326,	-1.2500000000
4923,	-2.7407407407,	0.0667641326,	-1.5000000000
4924,	-2.7407407407,	0.0667641326,	-1.7500000000
4925,	-2.7407407407,	0.0667641326,	-2.0000000000
4926,	-2.7407407407,	0.0667641326,	-2.2500000000
4927,	-2.7407407407,	0.0667641326,	-2.5000000000
4928,	-2.7407407407,	0.0667641326,	-2.7500000000
4929,	-2.7341321353,	0.0325988895,	-1.2500000000
4930,	-2.7259158578,	-0.0098777153,	-1.5000000000
4931,	-2.7227008059,	-0.0264989269,	-1.7500000000
4932,	-2.7217496916,	-0.0314160083,	-2.0000000000
4933,	-2.7227008059,	-0.0264989269,	-2.2500000000
4934,	-2.7259158578,	-0.0098777153,	-2.5000000000
4935,	-2.7341321353,	0.0325988895,	-2.7500000000
4936,	-2.5448617734,	0.1345487010,	-1.2500000000
4937,	-2.5503264167,	0.1774661432,	-1.5000000000
4938,	-2.5524647465,	0.1942598556,	-1.7500000000
4939,	-2.5530973323,	0.1992279683,	-2.0000000000
4940,	-2.5524647465,	0.1942598556,	-2.2500000000
4941,	-2.5503264167,	0.1774661432,	-2.5000000000
4942,	-2.5448617734,	0.1345487010,	-2.7500000000
4943,	-2.5404663923,	0.1000288788,	-1.2500000000
4944,	-2.5404663923,	0.1000288788,	-1.5000000000
4945,	-2.5404663923,	0.1000288788,	-1.7500000000
4946,	-2.5404663923,	0.1000288788,	-2.0000000000
4947,	-2.5404663923,	0.1000288788,	-2.2500000000
4948,	-2.5404663923,	0.1000288788,	-2.5000000000
4949,	-2.5404663923,	0.1000288788,	-2.7500000000
4950,	-2.5360710112,	0.0655090566,	-1.2500000000
4951,	-2.5306063680,	0.0225916144,	-1.5000000000
4952,	-2.5284680381,	0.0057979019,	-1.7500000000
4953,	-2.5278354524,	0.0008297893,	-2.0000000000
4954,	-2.5284680381,	0.0057979019,	-2.2500000000
4955,	-2.5306063680,	0.0225916144,	-2.5000000000
4956,	-2.5360710112,	0.0655090566,	-2.7500000000
4957,	-2.3010677143,	0.1577449458,	-1.2500000000
4958,	-2.3035889824,	0.2009353658,	-1.5000000000
4959,	-2.3045755616,	0.2178358952,	-1.7500000000
4960,	-2.3048674229,	0.2228356077,	-2.0000000000
4961,	-2.3045755616,	0.2178358952,	-2.2500000000
4962,	-2.3035889824,	0.2009353658,	-2.5000000000
4963,	-2.3010677143,	0.1577449458,	-2.7500000000
4964,	-2.2990397805,	0.1230055592,	-1.2500000000
4965,	-2.2990397805,	0.1230055592,	-1.5000000000
4966,	-2.2990397805,	0.1230055592,	-1.7500000000
4967,	-2.2990397805,	0.1230055592,	-2.0000000000
4968,	-2.2990397805,	0.1230055592,	-2.2500000000
4969,	-2.2990397805,	0.1230055592,	-2.5000000000
4970,	-2.2990397805,	0.1230055592,	-2.7500000000
4971,	-2.2970118468,	0.0882661725,	-1.2500000000
4972,	-2.2944905786,	0.0450757525,	-1.5000000000
4973,	-2.2935039995,	0.0281752232,	-1.7500000000
4974,	-2.2932121381,	0.0231755107,	-2.0000000000
4975,	-2.2935039995,	0.0281752232,	-2.2500000000
4976,	-2.2944905786,	0.0450757525,	-2.5000000000
4977,	-2.2970118468,	0.0882661725,	-2.7500000000
4978,	-2.0000000000,	0.1663774746,	-1.2500000000
4979,	-2.0000000000,	0.2096414223,	-1.5000000000
4980,	-2.0000000000,	0.2265707233,	-1.7500000000
4981,	-2.0000000000,	0.2315789474,	-2.0000000000
4982,	-2.0000000000,	0.2265707233,	-2.2500000000
4983,	-2.0000000000,	0.2096414223,	-2.5000000000
4984,	-2.0000000000,	0.1663774746,	-2.7500000000
4985,	-2.0000000000,	0.1315789474,	-1.2500000000
4986,	-2.0000000000,	0.1315789474,	-1.5000000000
4987,	-2.0000000000,	0.1315789474,	-1.7500000000
4988,	-2.0000000000,	0.1315789474,	-2.0000000000
4989,	-2.0000000000,	0.1315789474,	-2.2500000000
4990,	-2.0000000000,	0.1315789474,	-2.5000000000
4991,	-2.0000000000,	0.1315789474,	-2.7500000000
4992,	-2.0000000000,	0.0967804201,	-1.2500000000
4993,	-2.0000000000,	0.0535164724,	-1.5000000000
4994,	-2.0000000000,	0.0365871714,	-1.7500000000
4995,	-2.0000000000,	0.0315789474,	-2.0000000000
4996,	-2.0000000000,	0.0365871714,	-2.2500000000
4997,	-2.0000000000,	0.0535164724,	-2.5000000000
4998,	-2.0000000000,	0.0967804201,	-2.7500000000
4999,	-1.6989322857,	0.1577449458,	-1.2500000000
5000,	-1.6964110176,	0.2009353658,	-1.5000000000
5001,	-1.6954244384,	0.2178358952,	-1.7500000000
5002,	-1.6951325771,	0.2228356077,	-2.0000000000
5003,	-1.6954244384,	0.2178358952,	-2.2500000000
5004,	-1.6964110176,	0.2009353658,	-2.5000000000
5005,	-1.6989322857,	0.1577449458,	-2.7500000000
5006,	-1.7009602195,	0.1230055592,	-1.2500000000
5007,	-1.7009602195,	0.1230055592,	-1.5000000000
5008,	-1.7009602195,	0.1230055592,	-1.7500000000
5009,	-1.7009602195,	0.1230055592,	-2.0000000000
5010,	-1.7009602195,	0.1230055592,	-2.2500000000
5011,	-1.7009602195,	0.1230055592,	-2.5000000000
5012,	-1.7009602195,	0.1230055592,	-2.7500000000
5013,	-1.7029881532,	0.0882661725,	-1.2500000000
5014,	-1.7055094214,	0.0450757525,	-1.5000000000
5015,	-1.7064960005,	0.0281752232,	-1.7500000000
5016,	-1.7067878619,	0.0231755107,	-2.0000000000
5017,	-1.7064960005,	0.0281752232,	-2.2500000000
5018,	-1.7055094214,	0.0450757525,	-2.5000000000
5019,	-1.7029881532,	0.0882661725,	-2.7500000000
5020,	-1.4551382266,	0.1345487010,	-1.2500000000
5021,	-1.4496735833,	0.1774661432,	-1.5000000000
5022,	-1.4475352535,	0.1942598556,	-1.7500000000
5023,	-1.4469026677,	0.1992279683,	-2.0000000000
5024,	-1.4475352535,	0.1942598556,	-2.2500000000
5025,	-1.4496735833,	0.1774661432,	-2.5000000000
5026,	-1.4551382266,	0.1345487010,	-2.7500000000
5027,	-1.4595336077,	0.1000288788,	-1.2500000000
5028,	-1.4595336077,	0.1000288788,	-1.5000000000
5029,	-1.4595336077,	0.1000288788,	-1.7500000000
5030,	-1.4595336077,	0.1000288788,	-2.0000000000
5031,	-1.4595336077,	0.1000288788,	-2.2500000000
5032,	-1.4595336077,	0.1000288788,	-2.5000000000
5033,	-1.4595336077,	0.1000288788,	-2.7500000000
5034,	-1.4639289888,	0.0655090566,	-1.2500000000
5035,	-1.4693936320,	0.0225916144,	-1.5000000000
5036,	-1.4715319619,	0.0057979019,	-1.7500000000
5037,	-1.4721645476,	0.0008297893,	-2.0000000000
5038,	-1.4715319619,	0.0057979019,	-2.2500000000
5039,	-1.4693936320,	0.0225916144,	-2.5000000000
5040,	-1.4639289888,	0.0655090566,	-2.7500000000
5041,	-1.2526506538,	0.1009293756,	-1.2500000000
5042,	-1.2444343763,	0.1434059804,	-1.5000000000
5043,	-1.2412193244,	0.1600271920,	-1.7500000000
5044,	-1.2402682101,	0.1649442734,	-2.0000000000
5045,	-1.2412193244,	0.1600271920,	-2.2500000000
5046,	-1.2444343763,	0.1434059804,	-2.5000000000
5047,	-1.2526506538,	0.1009293756,	-2.7500000000
5048,	-1.2592592593,	0.0667641326,	-1.2500000000
5049,	-1.2592592593,	0.0667641326,	-1.5000000000
5050,	-1.2592592593,	0.0667641326,	-1.7500000000
5051,	-1.2592592593,	0.0667641326,	-2.0000000000
5052,	-1.2592592593,	0.0667641326,	-2.2500000000
5053,	-1.2592592593,	0.0667641326,	-2.5000000000
5054,	-1.2592592593,	0.0667641326,	-2.7500000000
5055,	-1.2658678647,	0.0325988895,	-1.2500000000
5056,	-1.2740841422,	-0.0098777153,	-1.5000000000
5057,	-1.2772991941,	-0.0264989269,	-1.7500000000
5058,	-1.2782503084,	-0.0314160083,	-2.0000000000
5059,	-1.2772991941,	-0.0264989269,	-2.2500000000
5060,	-1.2740841422,	-0.0098777153,	-2.5000000000
5061,	-1.2658678647,	0.0325988895,	-2.7500000000
5062,	-1.0756833864,	0.0611946931,	-1.2500000000
5063,	-1.0657460793,	0.1033019264,	-1.5000000000
5064,	-1.0618575839,	0.1197786019,	-1.7500000000
5065,	-1.0607072436,	0.1246529249,	-2.0000000000
5066,	-1.0618575839,	0.1197786019,	-2.2500000000
5067,	-1.0657460793,	0.1033019264,	-2.5000000000
5068,	-1.0756833864,	0.0611946931,	-2.7500000000
5069,	-1.0836762689,	0.0273265468,	-1.2500000000
5070,	-1.0836762689,	0.0273265468,	-1.5000000000
5071,	-1.0836762689,	0.0273265468,	-1.7500000000
5072,	-1.0836762689,	0.0273265468,	-2.0000000000
5073,	-1.0836762689,	0.0273265468,	-2.2500000000
5074,	-1.0836762689,	0.0273265468,	-2.5000000000
5075,	-1.0836762689,	0.0273265468,	-2.7500000000
5076,	-1.0916691514,	-0.0065415994,	-1.2500000000
5077,	-1.1016064584,	-0.0486488328,	-1.5000000000
5078,	-1.1054949539,	-0.0651255082,	-1.7500000000
5079,	-1.1066452941,	-0.0699998313,	-2.0000000000
5080,	-1.1054949539,	-0.0651255082,	-2.2500000000
5081,	-1.1016064584,	-0.0486488328,	-2.5000000000
5082,	-1.0916691514,	-0.0065415994,	-2.7500000000
5083,	-0.9083308486,	0.0196994941,	-1.2500000000
5084,	-0.8983935416,	0.0618067275,	-1.5000000000
5085,	-0.8945050461,	0.0782834030,	-1.7500000000
5086,	-0.8933547059,	0.0831577260,	-2.0000000000
5087,	-0.8945050461,	0.0782834030,	-2.2500000000
5088,	-0.8983935416,	0.0618067275,	-2.5000000000
5089,	-0.9083308486,	0.0196994941,	-2.7500000000
5090,	-0.9163237311,	-0.0141686521,	-1.2500000000
5091,	-0.9163237311,	-0.0141686521,	-1.5000000000
5092,	-0.9163237311,	-0.0141686521,	-1.7500000000
5093,	-0.9163237311,	-0.0141686521,	-2.0000000000
5094,	-0.9163237311,	-0.0141686521,	-2.2500000000
5095,	-0.9163237311,	-0.0141686521,	-2.5000000000
5096,	-0.9163237311,	-0.0141686521,	-2.7500000000
5097,	-0.9243166136,	-0.0480367983,	-1.2500000000
5098,	-0.9342539207,	-0.0901440317,	-1.5000000000
5099,	-0.9381424161,	-0.1066207071,	-1.7500000000
5100,	-0.9392927564,	-0.1114950302,	-2.0000000000
5101,	-0.9381424161,	-0.1066207071,	-2.2500000000
5102,	-0.9342539207,	-0.0901440317,	-2.5000000000
5103,	-0.9243166136,	-0.0480367983,	-2.7500000000
5104,	-0.7341321353,	-0.0194409947,	-1.2500000000
5105,	-0.7259158578,	0.0230356101,	-1.5000000000
5106,	-0.7227008059,	0.0396568216,	-1.7500000000
5107,	-0.7217496916,	0.0445739030,	-2.0000000000
5108,	-0.7227008059,	0.0396568216,	-2.2500000000
5109,	-0.7259158578,	0.0230356101,	-2.5000000000
5110,	-0.7341321353,	-0.0194409947,	-2.7500000000
5111,	-0.7407407407,	-0.0536062378,	-1.2500000000
5112,	-0.7407407407,	-0.0536062378,	-1.5000000000
5113,	-0.7407407407,	-0.0536062378,	-1.7500000000
5114,	-0.7407407407,	-0.0536062378,	-2.0000000000
5115,	-0.7407407407,	-0.0536062378,	-2.2500000000
5116,	-0.7407407407,	-0.0536062378,	-2.5000000000
5117,	-0.7407407407,	-0.0536062378,	-2.7500000000
5118,	-0.7473493462,	-0.0877714809,	-1.2500000000
5119,	-0.7555656237,	-0.1302480857,	-1.5000000000
5120,	-0.7587806756,	-0.1468692972,	-1.7500000000
5121,	-0.7597317899,	-0.1517863786,	-2.0000000000
5122,	-0.7587806756,	-0.1468692972,	-2.2500000000
5123,	-0.7555656237,	-0.1302480857,	-2.5000000000
5124,	-0.7473493462,	-0.0877714809,	-2.7500000000
5125,	-0.5360710112,	-0.0523511618,	-1.2500000000
5126,	-0.5306063680,	-0.0094337196,	-1.5000000000
5127,	-0.5284680381,	0.0073599928,	-1.7500000000
5128,	-0.5278354524,	0.0123281054,	-2.0000000000
5129,	-0.5284680381,	0.0073599928,	-2.2500000000
5130,	-0.5306063680,	-0.0094337196,	-2.5000000000
5131,	-0.5360710112,	-0.0523511618,	-2.7500000000
5132,	-0.5404663923,	-0.0868709840,	-1.2500000000
5133,	-0.5404663923,	-0.0868709840,	-1.5000000000
5134,	-0.5404663923,	-0.0868709840,	-1.7500000000
5135,	-0.5404663923,	-0.0868709840,	-2.0000000000
5136,	-0.5404663923,	-0.0868709840,	-2.2500000000
5137,	-0.5404663923,	-0.0868709840,	-2.5000000000
5138,	-0.5404663923,	-0.0868709840,	-2.7500000000
5139,	-0.5448617734,	-0.1213908062,	-1.2500000000
5140,	-0.5503264167,	-0.1643082485,	-1.5000000000
5141,	-0.5524647465,	-0.1811019609,	-1.7500000000
5142,	-0.5530973323,	-0.1860700735,	-2.0000000000
5143,	-0.5524647465,	-0.1811019609,	-2.2500000000
5144,	-0.5503264167,	-0.1643082485,	-2.5000000000
5145,	-0.5448617734,	-0.1213908062,	-2.7500000000
5146,	-0.2970118468,	-0.0751082778,	-1.2500000000
5147,	-0.2944905786,	-0.0319178578,	-1.5000000000
5148,	-0.2935039995,	-0.0150173284,	-1.7500000000
5149,	-0.2932121381,	-0.0100176159,	-2.0000000000
5150,	-0.2935039995,	-0.0150173284,	-2.2500000000
5151,	-0.2944905786,	-0.0319178578,	-2.5000000000
5152,	-0.2970118468,	-0.0751082778,	-2.7500000000
5153,	-0.2990397805,	-0.1098476644,	-1.2500000000
5154,	-0.2990397805,	-0.1098476644,	-1.5000000000
5155,	-0.2990397805,	-0.1098476644,	-1.7500000000
5156,	-0.2990397805,	-0.1098476644,	-2.0000000000
5157,	-0.2990397805,	-0.1098476644,	-2.2500000000
5158,	-0.2990397805,	-0.1098476644,	-2.5000000000
5159,	-0.2990397805,	-0.1098476644,	-2.7500000000
5160,	-0.3010677143,	-0.1445870511,	-1.2500000000
5161,	-0.3035889824,	-0.1877774711,	-1.5000000000
5162,	-0.3045755616,	-0.2046780004,	-1.7500000000
5163,	-0.3048674229,	-0.2096777129,	-2.0000000000
5164,	-0.3045755616,	-0.2046780004,	-2.2500000000
5165,	-0.3035889824,	-0.1877774711,	-2.5000000000
5166,	-0.3010677143,	-0.1445870511,	-2.7500000000
5167,	-0.0000000000,	-0.0836225254,	-1.2500000000
5168,	-0.0000000000,	-0.0403585777,	-1.5000000000
5169,	-0.0000000000,	-0.0234292767,	-1.7500000000
5170,	-0.0000000000,	-0.0184210526,	-2.0000000000
5171,	-0.0000000000,	-0.0234292767,	-2.2500000000
5172,	-0.0000000000,	-0.0403585777,	-2.5000000000
5173,	-0.0000000000,	-0.0836225254,	-2.7500000000
5174,	-0.0000000000,	-0.1184210526,	-1.2500000000
5175,	-0.0000000000,	-0.1184210526,	-1.5000000000
5176,	-0.0000000000,	-0.1184210526,	-1.7500000000
5177,	-0.0000000000,	-0.1184210526,	-2.0000000000
5178,	-0.0000000000,	-0.1184210526,	-2.2500000000
5179,	-0.0000000000,	-0.1184210526,	-2.5000000000
5180,	-0.0000000000,	-0.1184210526,	-2.7500000000
5181,	-0.0000000000,	-0.1532195799,	-1.2500000000
5182,	-0.0000000000,	-0.1964835276,	-1.5000000000
5183,	-0.0000000000,	-0.2134128286,	-1.7500000000
5184,	-0.0000000000,	-0.2184210526,	-2.0000000000
5185,	-0.0000000000,	-0.2134128286,	-2.2500000000
5186,	-0.0000000000,	-0.1964835276,	-2.5000000000
5187,	-0.0000000000,	-0.1532195799,	-2.7500000000
5188,	-0.0000000000,	-0.0836225254,	-1.2500000000
5189,	-0.0000000000,	-0.0403585777,	-1.5000000000
5190,	-0.0000000000,	-0.0234292767,	-1.7500000000
5191,	-0.0000000000,	-0.0184210526,	-2.0000000000
5192,	-0.0000000000,	-0.0234292767,	-2.2500000000
5193,	-0.0000000000,	-0.0403585777,	-2.5000000000
5194,	-0.0000000000,	-0.0836225254,	-2.7500000000
5195,	-0.0000000000,	-0.1184210526,	-1.2500000000
5196,	-0.0000000000,	-0.1184210526,	-1.5000000000
5197,	-0.0000000000,	-0.1184210526,	-1.7500000000
5198,	-0.0000000000,	-0.1184210526,	-2.0000000000
5199,	-0.0000000000,	-0.1184210526,	-2.2500000000
5200,	-0.0000000000,	-0.1184210526,	-2.5000000000
5201,	-0.0000000000,	-0.1184210526,	-2.7500000000
5202,	-0.0000000000,	-0.1532195799,	-1.2500000000
5203,	-0.0000000000,	-0.1964835276,	-1.5000000000
5204,	-0.0000000000,	-0.2134128286,	-1.7500000000
5205,	-0.0000000000,	-0.2184210526,	-2.0000000000
5206,	-0.0000000000,	-0.2134128286,	-2.2500000000
5207,	-0.0000000000,	-0.1964835276,	-2.5000000000
5208,	-0.0000000000,	-0.1532195799,	-2.7500000000
5209,	0.2970118468,	-0.0751082778,	-1.2500000000
5210,	0.2944905786,	-0.0319178578,	-1.5000000000
5211,	0.2935039995,	-0.0150173284,	-1.7500000000
5212,	0.2932121381,	-0.0100176159,	-2.0000000000
5213,	0.2935039995,	-0.0150173284,	-2.2500000000
5214,	0.2944905786,	-0.0319178578,	-2.5000000000
5215,	0.2970118468,	-0.0751082778,	-2.7500000000
5216,	0.2990397805,	-0.1098476644,	-1.2500000000
5217,	0.2990397805,	-0.1098476644,	-1.5000000000
5218,	0.2990397805,	-0.1098476644,	-1.7500000000
5219,	0.2990397805,	-0.1098476644,	-2.0000000000
5220,	0.2990397805,	-0.1098476644,	-2.2500000000
5221,	0.2990397805,	-0.1098476644,	-2.5000000000
5222,	0.2990397805,	-0.1098476644,	-2.7500000000
5223,	0.3010677143,	-0.1445870511,	-1.2500000000
5224,	0.3035889824,	-0.1877774711,	-1.5000000000
5225,	0.3045755616,	-0.2046780004,	-1.7500000000
5226,	0.3048674229,	-0.2096777129,	-2.0000000000
5227,	0.3045755616,	-0.2046780004,	-2.2500000000
5228,	0.3035889824,	-0.1877774711,	-2.5000000000
5229,	0.3010677143,	-0.1445870511,	-2.7500000000
5230,	0.5360710112,	-0.0523511618,	-1.2500000000
5231,	0.5306063680,	-0.0094337196,	-1.5000000000
5232,	0.5284680381,	0.0073599928,	-1.7500000000
5233,	0.5278354524,	0.0123281054,	-2.0000000000
5234,	0.5284680381,	0.0073599928,	-2.2500000000
5235,	0.5306063680,	-0.0094337196,	-2.5000000000
5236,	0.5360710112,	-0.0523511618,	-2.7500000000
5237,	0.5404663923,	-0.0868709840,	-1.2500000000
5238,	0.5404663923,	-0.0868709840,	-1.5000000000
5239,	0.5404663923,	-0.0868709840,	-1.7500000000
5240,	0.5404663923,	-0.0868709840,	-2.0000000000
5241,	0.5404663923,	-0.0868709840,	-2.2500000000
5242,	0.5404663923,	-0.0868709840,	-2.5000000000
5243,	0.5404663923,	-0.0868709840,	-2.7500000000
5244,	0.5448617734,	-0.1213908062,	-1.2500000000
5245,	0.5503264167,	-0.1643082485,	-1.5000000000
5246,	0.5524647465,	-0.1811019609,	-1.7500000000
5247,	0.5530973323,	-0.1860700735,	-2.0000000000
5248,	0.5524647465,	-0.1811019609,	-2.2500000000
5249,	0.5503264167,	-0.1643082485,	-2.5000000000
5250,	0.5448617734,	-0.1213908062,	-2.7500000000
5251,	0.7341321353,	-0.0194409947,	-1.2500000000
5252,	0.7259158578,	0.0230356101,	-1.5000000000
5253,	0.7227008059,	0.0396568216,	-1.7500000000
5254,	0.7217496916,	0.0445739030,	-2.0000000000
5255,	0.7227008059,	0.0396568216,	-2.2500000000
5256,	0.7259158578,	0.0230356101,	-2.5000000000
5257,	0.7341321353,	-0.0194409947,	-2.7500000000
5258,	0.7407407407,	-0.0536062378,	-1.2500000000
5259,	0.7407407407,	-0.0536062378,	-1.5000000000
5260,	0.7407407407,	-0.0536062378,	-1.7500000000
5261,	0.7407407407,	-0.0536062378,	-2.0000000000
5262,	0.7407407407,	-0.0536062378,	-2.2500000000
5263,	0.7407407407,	-0.0536062378,	-2.5000000000
5264,	0.7407407407,	-0.0536062378,	-2.7500000000
5265,	0.7473493462,	-0.0877714809,	-1.2500000000
5266,	0.7555656237,	-0.1302480857,	-1.5000000000
5267,	0.7587806756,	-0.1468692972,	-1.7500000000
5268,	0.7597317899,	-0.1517863786,	-2.0000000000
5269,	0.7587806756,	-0.1468692972,	-2.2500000000
5270,	0.7555656237,	-0.1302480857,	-2.5000000000
5271,	0.7473493462,	-0.0877714809,	-2.7500000000
5272,	0.9083308486,	0.0196994941,	-1.2500000000
5273,	0.8983935416,	0.0618067275,	-1.5000000000
5274,	0.8945050461,	0.0782834030,	-1.7500000000
5275,	0.8933547059,	0.0831577260,	-2.0000000000
5276,	0.8945050461,	0.0782834030,	-2.2500000000
5277,	0.8983935416,	0.0618067275,	-2.5000000000
5278,	0.9083308486,	0.0196994941,	-2.7500000000
5279,	0.9163237311,	-0.0141686521,	-1.2500000000
5280,	0.9163237311,	-0.0141686521,	-1.5000000000
5281,	0.9163237311,	-0.0141686521,	-1.7500000000
5282,	0.9163237311,	-0.0141686521,	-2.0000000000
5283,	0.9163237311,	-0.0141686521,	-2.2500000000
5284,	0.9163237311,	-0.0141686521,	-2.5000000000
5285,	0.9163237311,	-0.0141686521,	-2.7500000000
5286,	0.9243166136,	-0.0480367983,	-1.2500000000
5287,	0.9342539207,	-0.0901440317,	-1.5000000000
5288,	0.9381424161,	-0.1066207071,	-1.7500000000
5289,	0.9392927564,	-0.1114950302,	-2.0000000000
5290,	0.9381424161,	-0.1066207071,	-2.2500000000
5291,	0.9342539207,	-0.0901440317,	-2.5000000000
5292,	0.9243166136,	-0.0480367983,	-2.7500000000
5293,	1.0756833864,	0.0611946931,	-1.2500000000
5294,	1.0657460793,	0.1033019264,	-1.5000000000
5295,	1.0618575839,	0.1197786019,	-1.7500000000
5296,	1.0607072436,	0.1246529249,	-2.0000000000
5297,	1.0618575839,	0.1197786019,	-2.2500000000
5298,	1.0657460793,	0.1033019264,	-2.5000000000
5299,	1.0756833864,	0.0611946931,	-2.7500000000
5300,	1.0836762689,	0.0273265468,	-1.2500000000
5301,	1.0836762689,	0.0273265468,	-1.5000000000
5302,	1.0836762689,	0.0273265468,	-1.7500000000
5303,	1.0836762689,	0.0273265468,	-2.0000000000
5304,	1.0836762689,	0.0273265468,	-2.2500000000
5305,	1.0836762689,	0.0273265468,	-2.5000000000
5306,	1.0836762689,	0.0273265468,	-2.7500000000
5307,	1.0916691514,	-0.0065415994,	-1.2500000000
5308,	1.1016064584,	-0.0486488328,	-1.5000000000
5309,	1.1054949539,	-0.0651255082,	-1.7500000000
5310,	1.1066452941,	-0.0699998313,	-2.0000000000
5311,	1.1054949539,	-0.0651255082,	-2.2500000000
5312,	1.1016064584,	-0.0486488328,	-2.5000000000
5313,	1.0916691514,	-0.0065415994,	-2.7500000000
5314,	1.2526506538,	0.1009293756,	-1.2500000000
5315,	1.2444343763,	0.1434059804,	-1.5000000000
5316,	1.2412193244,	0.1600271920,	-1.7500000000
5317,	1.2402682101,	0.1649442734,	-2.0000000000
5318,	1.2412193244,	0.1600271920,	-2.2500000000
5319,	1.2444343763,	0.1434059804,	-2.5000000000
5320,	1.2526506538,	0.1009293756,	-2.7500000000
5321,	1.2592592593,	0.0667641326,	-1.2500000000
5322,	1.2592592593,	0.0667641326,	-1.5000000000
5323,	1.2592592593,	0.0667641326,	-1.7500000000
5324,	1.2592592593,	0.0667641326,	-2.0000000000
5325,	1.2592592593,	0.0667641326,	-2.2500000000
5326,	1.2592592593,	0.0667641326,	-2.5000000000
5327,	1.2592592593,	0.0667641326,	-2.7500000000
5328,	1.2658678647,	0.0325988895,	-1.2500000000
5329,	1.2740841422,	-0.0098777153,	-1.5000000000
5330,	1.2772991941,	-0.0264989269,	-1.7500000000
5331,	1.2782503084,	-0.0314160083,	-2.0000000000
5332,	1.2772991941,	-0.0264989269,	-2.2500000000
5333,	1.2740841422,	-0.0098777153,	-2.5000000000
5334,	1.2658678647,	0.0325988895,	-2.7500000000
5335,	1.4551382266,	0.1345487010,	-1.2500000000
5336,	1.4496735833,	0.1774661432,	-1.5000000000
5337,	1.4475352535,	0.1942598556,	-1.7500000000
5338,	1.4469026677,	0.1992279683,	-2.0000000000
5339,	1.4475352535,	0.1942598556,	-2.2500000000
5340,	1.4496735833,	0.1774661432,	-2.5000000000
5341,	1.4551382266,	0.1345487010,	-2.7500000000
5342,	1.4595336077,	0.1000288788,	-1.2500000000
5343,	1.4595336077,	0.1000288788,	-1.5000000000
5344,	1.4595336077,	0.1000288788,	-1.7500000000
5345,	1.4595336077,	0.1000288788,	-2.0000000000
5346,	1.4595336077,	0.1000288788,	-2.2500000000
5347,	1.4595336077,	0.1000288788,	-2.5000000000
5348,	1.4595336077,	0.1000288788,	-2.7500000000
5349,	1.4639289888,	0.0655090566,	-1.2500000000
5350,	1.4693936320,	0.0225916144,	-1.5000000000
5351,	1.4715319619,	0.0057979019,	-1.7500000000
5352,	1.4721645476,	0.0008297893,	-2.0000000000
5353,	1.4715319619,	0.0057979019,	-2.2500000000
5354,	1.4693936320,	0.0225916144,	-2.5000000000
5355,	1.4639289888,	0.0655090566,	-2.7500000000
5356,	1.6989322857,	0.1577449458,	-1.2500000000
5357,	1.6964110176,	0.2009353658,	-1.5000000000
5358,	1.6954244384,	0.2178358952,	-1.7500000000
5359,	1.6951325771,	0.2228356077,	-2.0000000000
5360,	1.6954244384,	0.2178358952,	-2.2500000000
5361,	1.6964110176,	0.2009353658,	-2.5000000000
5362,	1.6989322857,	0.1577449458,	-2.7500000000
5363,	1.7009602195,	0.1230055592,	-1.2500000000
5364,	1.7009602195,	0.1230055592,	-1.5000000000
5365,	1.7009602195,	0.1230055592,	-1.7500000000
5366,	1.7009602195,	0.1230055592,	-2.0000000000
5367,	1.7009602195,	0.1230055592,	-2.2500000000
5368,	1.7009602195,	0.1230055592,	-2.5000000000
5369,	1.7009602195,	0.1230055592,	-2.7500000000
5370,	1.7029881532,	0.0882661725,	-1.2500000000
5371,	1.7055094214,	0.0450757525,	-1.5000000000
5372,	1.7064960005,	0.0281752232,	-1.7500000000
5373,	1.7067878619,	0.0231755107,	-2.0000000000
5374,	1.7064960005,	0.0281752232,	-2.2500000000
5375,	1.7055094214,	0.0450757525,	-2.5000000000
5376,	1.7029881532,	0.0882661725,	-2.7500000000
5377,	2.0000000000,	0.1663774746,	-1.2500000000
5378,	2.0000000000,	0.2096414223,	-1.5000000000
5379,	2.0000000000,	0.2265707233,	-1.7500000000
5380,	2.0000000000,	0.2315789474,	-2.0000000000
5381,	2.0000000000,	0.2265707233,	-2.2500000000
5382,	2.0000000000,	0.2096414223,	-2.5000000000
5383,	2.0000000000,	0.1663774746,	-2.7500000000
5384,	2.0000000000,	0.1315789474,	-1.2500000000
5385,	2.0000000000,	0.1315789474,	-1.5000000000
5386,	2.0000000000,	0.1315789474,	-1.7500000000
5387,	2.0000000000,	0.1315789474,	-2.0000000000
5388,	2.0000000000,	0.1315789474,	-2.2500000000
5389,	2.0000000000,	0.1315789474,	-2.5000000000
5390,	2.0000000000,	0.1315789474,	-2.7500000000
5391,	2.0000000000,	0.0967804201,	-1.2500000000
5392,	2.0000000000,	0.0535164724,	-1.5000000000
5393,	2.0000000000,	0.0365871714,	-1.7500000000
5394,	2.0000000000,	0.0315789474,	-2.0000000000
5395,	2.0000000000,	0.0365871714,	-2.2500000000
5396,	2.0000000000,	0.0535164724,	-2.5000000000
5397,	2.0000000000,	0.0967804201,	-2.7500000000
5398,	2.3010677143,	0.1577449458,	-1.2500000000
5399,	2.3035889824,	0.2009353658,	-1.5000000000
5400,	2.3045755616,	0.2178358952,	-1.7500000000
5401,	2.3048674229,	0.2228356077,	-2.0000000000
5402,	2.3045755616,	0.2178358952,	-2.2500000000
5403,	2.3035889824,	0.2009353658,	-2.5000000000
5404,	2.3010677143,	0.1577449458,	-2.7500000000
5405,	2.2990397805,	0.1230055592,	-1.2500000000
5406,	2.2990397805,	0.1230055592,	-1.5000000000
5407,	2.2990397805,	0.1230055592,	-1.7500000000
5408,	2.2990397805,	0.1230055592,	-2.0000000000
5409,	2.2990397805,	0.1230055592,	-2.2500000000
5410,	2.2990397805,	0.1230055592,	-2.5000000000
5411,	2.2990397805,	0.1230055592,	-2.7500000000
5412,	2.2970118468,	0.0882661725,	-1.2500000000
5413,	2.2944905786,	0.0450757525,	-1.5000000000
5414,	2.2935039995,	0.0281752232,	-1.7500000000
5415,	2.2932121381,	0.0231755107,	-2.0000000000
5416,	2.2935039995,	0.0281752232,	-2.2500000000
5417,	2.2944905786,	0.0450757525,	-2.5000000000
5418,	2.2970118468,	0.0882661725,	-2.7500000000
5419,	2.5448617734,	0.1345487010,	-1.2500000000
5420,	2.5503264167,	0.1774661432,	-1.5000000000
5421,	2.5524647465,	0.1942598556,	-1.7500000000
5422,	2.5530973323,	0.1992279683,	-2.0000000000
5423,	2.5524647465,	0.1942598556,	-2.2500000000
5424,	2.5503264167,	0.1774661432,	-2.5000000000
5425,	2.5448617734,	0.1345487010,	-2.7500000000
5426,	2.5404663923,	0.1000288788,	-1.2500000000
5427,	2.5404663923,	0.1000288788,	-1.5000000000
5428,	2.5404663923,	0.1000288788,	-1.7500000000
5429,	2.5404663923,	0.1000288788,	-2.0000000000
5430,	2.5404663923,	0.1000288788,	-2.2500000000
5431,	2.5404663923,	0.1000288788,	-2.5000000000
5432,	2.5404663923,	0.1000288788,	-2.7500000000
5433,	2.5360710112,	0.0655090566,	-1.2500000000
5434,	2.5306063680,	0.0225916144,	-1.5000000000
5435,	2.5284680381,	0.0057979019,	-1.7500000000
5436,	2.5278354524,	0.0008297893,	-2.0000000000
5437,	2.5284680381,	0.0057979019,	-2.2500000000
5438,	2.5306063680,	0.0225916144,	-2.5000000000
5439,	2.5360710112,	0.0655090566,	-2.7500000000
5440,	2.7473493462,	0.1009293756,	-1.2500000000
5441,	2.7555656237,	0.1434059804,	-1.5000000000
5442,	2.7587806756,	0.1600271920,	-1.7500000000
5443,	2.7597317899,	0.1649442734,	-2.0000000000
5444,	2.7587806756,	0.1600271920,	-2.2500000000
5445,	2.7555656237,	0.1434059804,	-2.5000000000
5446,	2.7473493462,	0.1009293756,	-2.7500000000
5447,	2.7407407407,	0.0667641326,	-1.2500000000
5448,	2.7407407407,	0.0667641326,	-1.5000000000
5449,	2.7407407407,	0.0667641326,	-1.7500000000
5450,	2.7407407407,	0.0667641326,	-2.0000000000
5451,	2.7407407407,	0.0667641326,	-2.2500000000
5452,	2.7407407407,	0.0667641326,	-2.5000000000
5453,	2.7407407407,	0.0667641326,	-2.7500000000
5454,	2.7341321353,	0.0325988895,	-1.2500000000
5455,	2.7259158578,	-0.0098777153,	-1.5000000000
5456,	2.7227008059,	-0.0264989269,	-1.7500000000
5457,	2.7217496916,	-0.0314160083,	-2.0000000000
5458,	2.7227008059,	-0.0264989269,	-2.2500000000
5459,	2.7259158578,	-0.0098777153,	-2.5000000000
5460,	2.7341321353,	0.0325988895,	-2.7500000000
5461,	2.9243166136,	0.0611946931,	-1.2500000000
5462,	2.9342539207,	0.1033019264,	-1.5000000000
5463,	2.9381424161,	0.1197786019,	-1.7500000000
5464,	2.9392927564,	0.1246529249,	-2.0000000000
5465,	2.9381424161,	0.1197786019,	-2.2500000000
5466,	2.9342539207,	0.1033019264,	-2.5000000000
5467,	2.9243166136,	0.0611946931,	-2.7500000000
5468,	2.9163237311,	0.0273265468,	-1.2500000000
5469,	2.9163237311,	0.0273265468,	-1.5000000000
5470,	2.9163237311,	0.0273265468,	-1.7500000000
5471,	2.9163237311,	0.0273265468,	-2.0000000000
5472,	2.9163237311,	0.0273265468,	-2.2500000000
5473,	2.9163237311,	0.0273265468,	-2.5000000000
5474,	2.9163237311,	0.0273265468,	-2.7500000000
5475,	2.9083308486,	-0.0065415994,	-1.2500000000
5476,	2.8983935416,	-0.0486488328,	-1.5000000000
5477,	2.8945050461,	-0.0651255082,	-1.7500000000
5478,	2.8933547059,	-0.0699998313,	-2.0000000000
5479,	2.8945050461,	-0.0651255082,	-2.2500000000
5480,	2.8983935416,	-0.0486488328,	-2.5000000000
5481,	2.9083308486,	-0.0065415994,	-2.7500000000
5482,	3.0916691514,	0.0196994941,	-1.2500000000
5483,	3.1016064584,	0.0618067275,	-1.5000000000
5484,	3.1054949539,	0.0782834030,	-1.7500000000
5485,	3.1066452941,	0.0831577260,	-2.0000000000
5486,	3.1054949539,	0.0782834030,	-2.2500000000
5487,	3.1016064584,	0.0618067275,	-2.5000000000
5488,	3.0916691514,	0.0196994941,	-2.7500000000
5489,	3.0836762689,	-0.0141686521,	-1.2500000000
5490,	3.0836762689,	-0.0141686521,	-1.5000000000
5491,	3.0836762689,	-0.0141686521,	-1.7500000000
5492,	3.0836762689,	-0.0141686521,	-2.0000000000
5493,	3.0836762689,	-0.0141686521,	-2.2500000000
5494,	3.0836762689,	-0.0141686521,	-2.5000000000
5495,	3.0836762689,	-0.0141686521,	-2.7500000000
5496,	3.0756833864,	-0.0480367983,	-1.2500000000
5497,	3.0657460793,	-0.0901440317,	-1.5000000000
5498,	3.0618575839,	-0.1066207071,	-1.7500000000
5499,	3.0607072436,	-0.1114950302,	-2.0000000000
5500,	3.0618575839,	-0.1066207071,	-2.2500000000
5501,	3.0657460793,	-0.0901440317,	-2.5000000000
5502,	3.0756833864,	-0.0480367983,	-2.7500000000
5503,	3.2658678647,	-0.0194409947,	-1.2500000000
5504,	3.2740841422,	0.0230356101,	-1.5000000000
5505,	3.2772991941,	0.0396568216,	-1.7500000000
5506,	3.2782503084,	0.0445739030,	-2.0000000000
5507,	3.2772991941,	0.0396568216,	-2.2500000000
5508,	3.2740841422,	0.0230356101,	-2.5000000000
5509,	3.2658678647,	-0.0194409947,	-2.7500000000
5510,	3.2592592593,	-0.0536062378,	-1.2500000000
5511,	3.2592592593,	-0.0536062378,	-1.5000000000
5512,	3.2592592593,	-0.0536062378,	-1.7500000000
5513,	3.2592592593,	-0.0536062378,	-2.0000000000
5514,	3.2592592593,	-0.0536062378,	-2.2500000000
5515,	3.2592592593,	-0.0536062378,	-2.5000000000
5516,	3.2592592593,	-0.0536062378,	-2.7500000000
5517,	3.2526506538,	-0.0877714809,	-1.2500000000
5518,	3.2444343763,	-0.1302480857,	-1.5000000000
5519,	3.2412193244,	-0.1468692972,	-1.7500000000
5520,	3.2402682101,	-0.1517863786,	-2.0000000000
5521,	3.2412193244,	-0.1468692972,	-2.2500000000
5522,	3.2444343763,	-0.1302480857,	-2.5000000000
5523,	3.2526506538,	-0.0877714809,	-2.7500000000
5524,	3.4639289888,	-0.0523511618,	-1.2500000000
5525,	3.4693936320,	-0.0094337196,	-1.5000000000
5526,	3.4715319619,	0.0073599928,	-1.7500000000
5527,	3.4721645476,	0.0123281054,	-2.0000000000
5528,	3.4715319619,	0.0073599928,	-2.2500000000
5529,	3.4693936320,	-0.0094337196,	-2.5000000000
5530,	3.4639289888,	-0.0523511618,	-2.7500000000
5531,	3.4595336077,	-0.0868709840,	-1.2500000000
5532,	3.4595336077,	-0.0868709840,	-1.5000000000
5533,	3.4595336077,	-0.0868709840,	-1.7500000000
5534,	3.4595336077,	-0.0868709840,	-2.0000000000
5535,	3.4595336077,	-0.0868709840,	-2.2500000000
5536,	3.4595336077,	-0.0868709840,	-2.5000000000
5537,	3.4595336077,	-0.0868709840,	-2.7500000000
5538,	3.4551382266,	-0.1213908062,	-1.2500000000
5539,	3.4496735833,	-0.1643082485,	-1.5000000000
5540,	3.4475352535,	-0.1811019609,	-1.7500000000
5541,	3.4469026677,	-0.1860700735,	-2.0000000000
5542,	3.4475352535,	-0.1811019609,	-2.2500000000
5543,	3.4496735833,	-0.1643082485,	-2.5000000000
5544,	3.4551382266,	-0.1213908062,	-2.7500000000
5545,	3.7029881532,	-0.0751082778,	-1.2500000000
5546,	3.7055094214,	-0.0319178578,	-1.5000000000
5547,	3.7064960005,	-0.0150173284,	-1.7500000000
5548,	3.7067878619,	-0.0100176159,	-2.0000000000
5549,	3.7064960005,	-0.0150173284,	-2.2500000000
5550,	3.7055094214,	-0.0319178578,	-2.5000000000
5551,	3.7029881532,	-0.0751082778,	-2.7500000000
5552,	3.7009602195,	-0.1098476644,	-1.2500000000
5553,	3.7009602195,	-0.1098476644,	-1.5000000000
5554,	3.7009602195,	-0.1098476644,	-1.7500000000
5555,	3.7009602195,	-0.1098476644,	-2.0000000000
5556,	3.7009602195,	-0.1098476644,	-2.2500000000
5557,	3.7009602195,	-0.1098476644,	-2.5000000000
5558,	3.7009602195,	-0.1098476644,	-2.7500000000
5559,	3.6989322857,	-0.1445870511,	-1.2500000000
5560,	3.6964110176,	-0.1877774711,	-1.5000000000
5561,	3.6954244384,	-0.2046780004,	-1.7500000000
5562,	3.6951325771,	-0.2096777129,	-2.0000000000
5563,	3.6954244384,	-0.2046780004,	-2.2500000000
5564,	3.6964110176,	-0.1877774711,	-2.5000000000
5565,	3.6989322857,	-0.1445870511,	-2.7500000000
5566,	4.0000000000,	-0.0836225254,	-1.2500000000
5567,	4.0000000000,	-0.0403585777,	-1.5000000000
5568,	4.0000000000,	-0.0234292767,	-1.7500000000
5569,	4.0000000000,	-0.0184210526,	-2.0000000000
5570,	4.0000000000,	-0.0234292767,	-2.2500000000
5571,	4.0000000000,	-0.0403585777,	-2.5000000000
5572,	4.0000000000,	-0.0836225254,	-2.7500000000
5573,	4.0000000000,	-0.1184210526,	-1.2500000000
5574,	4.0000000000,	-0.1184210526,	-1.5000000000
5575,	4.0000000000,	-0.1184210526,	-1.7500000000
5576,	4.0000000000,	-0.1184210526,	-2.0000000000
5577,	4.0000000000,	-0.1184210526,	-2.2500000000
5578,	4.0000000000,	-0.1184210526,	-2.5000000000
5579,	4.0000000000,	-0.1184210526,	-2.7500000000
5580,	4.0000000000,	-0.1532195799,	-1.2500000000
5581,	4.0000000000,	-0.1964835276,	-1.5000000000
5582,	4.0000000000,	-0.2134128286,	-1.7500000000
5583,	4.0000000000,	-0.2184210526,	-2.0000000000
5584,	4.0000000000,	-0.2134128286,	-2.2500000000
5585,	4.0000000000,	-0.1964835276,	-2.5000000000
5586,	4.0000000000,	-0.1532195799,	-2.7500000000
5587,	-4.0000000000,	0.1532195799,	0.7500000000
5588,	-4.0000000000,	0.1964835276,	0.5000000000
5589,	-4.0000000000,	0.2134128286,	0.2500000000
5590,	-4.0000000000,	0.2184210526,	-0.0000000000
5591,	-4.0000000000,	0.2134128286,	-0.2500000000
5592,	-4.0000000000,	0.1964835276,	-0.5000000000
5593,	-4.0000000000,	0.1532195799,	-0.7500000000
5594,	-4.0000000000,	0.1184210526,	0.7500000000
5595,	-4.0000000000,	0.1184210526,	0.5000000000
5596,	-4.0000000000,	0.1184210526,	0.2500000000
5597,	-4.0000000000,	0.1184210526,	-0.0000000000
5598,	-4.0000000000,	0.1184210526,	-0.2500000000
5599,	-4.0000000000,	0.1184210526,	-0.5000000000
5600,	-4.0000000000,	0.1184210526,	-0.7500000000
5601,	-4.0000000000,	0.0836225254,	0.7500000000
5602,	-4.0000000000,	0.0403585777,	0.5000000000
5603,	-4.0000000000,	0.0234292767,	0.2500000000
5604,	-4.0000000000,	0.0184210526,	-0.0000000000
5605,	-4.0000000000,	0.0234292767,	-0.2500000000
5606,	-4.0000000000,	0.0403585777,	-0.5000000000
5607,	-4.0000000000,	0.0836225254,	-0.7500000000
5608,	-3.6989322857,	0.1445870511,	0.7500000000
5609,	-3.6964110176,	0.1877774711,	0.5000000000
5610,	-3.6954244384,	0.2046780004,	0.2500000000
5611,	-3.6951325771,	0.2096777129,	-0.0000000000
5612,	-3.6954244384,	0.2046780004,	-0.2500000000
5613,	-3.6964110176,	0.1877774711,	-0.5000000000
5614,	-3.6989322857,	0.1445870511,	-0.7500000000
5615,	-3.7009602195,	0.1098476644,	0.7500000000
5616,	-3.7009602195,	0.1098476644,	0.5000000000
5617,	-3.7009602195,	0.1098476644,	0.2500000000
5618,	-3.7009602195,	0.1098476644,	-0.0000000000
5619,	-3.7009602195,	0.1098476644,	-0.2500000000
5620,	-3.7009602195,	0.1098476644,	-0.5000000000
5621,	-3.7009602195,	0.1098476644,	-0.7500000000
5622,	-3.7029881532,	0.0751082778,	0.7500000000
5623,	-3.7055094214,	0.0319178578,	0.5000000000
5624,	-3.7064960005,	0.0150173284,	0.2500000000
5625,	-3.7067878619,	0.0100176159,	-0.0000000000
5626,	-3.7064960005,	0.0150173284,	-0.2500000000
5627,	-3.7055094214,	0.0319178578,	-0.5000000000
5628,	-3.7029881532,	0.0751082778,	-0.7500000000
5629,	-3.4551382266,	0.1213908062,	0.7500000000
5630,	-3.4496735833,	0.1643082485,	0.5000000000
5631,	-3.4475352535,	0.1811019609,	0.2500000000
5632,	-3.4469026677,	0.1860700735,	-0.0000000000
5633,	-3.4475352535,	0.1811019609,	-0.2500000000
5634,	-3.4496735833,	0.1643082485,	-0.5000000000
5635,	-3.4551382266,	0.1213908062,	-0.7500000000
5636,	-3.4595336077,	0.0868709840,	0.7500000000
5637,	-3.4595336077,	0.0868709840,	0.5000000000
5638,	-3.4595336077,	0.0868709840,	0.2500000000
5639,	-3.4595336077,	0.0868709840,	-0.0000000000
5640,	-3.4595336077,	0.0868709840,	-0.2500000000
5641,	-3.4595336077,	0.0868709840,	-0.5000000000
5642,	-3.4595336077,	0.0868709840,	-0.7500000000
5643,	-3.4639289888,	0.0523511618,	0.7500000000
5644,	-3.4693936320,	0.0094337196,	0.5000000000
5645,	-3.4715319619,	-0.0073599928,	0.2500000000
5646,	-3.4721645476,	-0.0123281054,	-0.0000000000
5647,	-3.4715319619,	-0.0073599928,	-0.2500000000
5648,	-3.4693936320,	0.0094337196,	-0.5000000000
5649,	-3.4639289888,	0.0523511618,	-0.7500000000
5650,	-3.2526506538,	0.0877714809,	0.7500000000
5651,	-3.2444343763,	0.1302480857,	0.5000000000
5652,	-3.2412193244,	0.1468692972,	0.2500000000
5653,	-3.2402682101,	0.1517863786,	-0.0000000000
5654,	-3.2412193244,	0.1468692972,	-0.2500000000
5655,	-3.2444343763,	0.1302480857,	-0.5000000000
5656,	-3.2526506538,	0.0877714809,	-0.7500000000
5657,	-3.2592592593,	0.0536062378,	0.7500000000
5658,	-3.2592592593,	0.0536062378,	0.5000000000
5659,	-3.2592592593,	0.0536062378,	0.2500000000
5660,	-3.2592592593,	0.0536062378,	-0.0000000000
5661,	-3.2592592593,	0.0536062378,	-0.2500000000
5662,	-3.2592592593,	0.0536062378,	-0.5000000000
5663,	-3.2592592593,	0.0536062378,	-0.7500000000
5664,	-3.2658678647,	0.0194409947,	0.7500000000
5665,	-3.2740841422,	-0.0230356101,	0.5000000000
5666,	-3.2772991941,	-0.0396568216,	0.2500000000
5667,	-3.2782503084,	-0.0445739030,	-0.0000000000
5668,	-3.2772991941,	-0.0396568216,	-0.2500000000
5669,	-3.2740841422,	-0.0230356101,	-0.5000000000
5670,	-3.2658678647,	0.0194409947,	-0.7500000000
5671,	-3.0756833864,	0.0480367983,	0.7500000000
5672,	-3.0657460793,	0.0901440317,	0.5000000000
5673,	-3.0618575839,	0.1066207071,	0.2500000000
5674,	-3.0607072436,	0.1114950302,	-0.0000000000
5675,	-3.0618575839,	0.1066207071,	-0.2500000000
5676,	-3.0657460793,	0.0901440317,	-0.5000000000
5677,	-3.0756833864,	0.0480367983,	-0.7500000000
5678,	-3.0836762689,	0.0141686521,	0.7500000000
5679,	-3.0836762689,	0.0141686521,	0.5000000000
5680,	-3.0836762689,	0.0141686521,	0.2500000000
5681,	-3.0836762689,	0.0141686521,	-0.0000000000
5682,	-3.0836762689,	0.0141686521,	-0.2500000000
5683,	-3.0836762689,	0.0141686521,	-0.5000000000
5684,	-3.0836762689,	0.0141686521,	-0.7500000000
5685,	-3.0916691514,	-0.0196994941,	0.7500000000
5686,	-3.1016064584,	-0.0618067275,	0.5000000000
5687,	-3.1054949539,	-0.0782834030,	0.2500000000
5688,	-3.1066452941,	-0.0831577260,	-0.0000000000
5689,	-3.1054949539,	-0.0782834030,	-0.2500000000
5690,	-3.1016064584,	-0.0618067275,	-0.5000000000
5691,	-3.0916691514,	-0.0196994941,	-0.7500000000
5692,	-2.9083308486,	0.0065415994,	0.7500000000
5693,	-2.8983935416,	0.0486488328,	0.5000000000
5694,	-2.8945050461,	0.0651255082,	0.2500000000
5695,	-2.8933547059,	0.0699998313,	-0.0000000000
5696,	-2.8945050461,	0.0651255082,	-0.2500000000
5697,	-2.8983935416,	0.0486488328,	-0.5000000000
5698,	-2.9083308486,	0.0065415994,	-0.7500000000
5699,	-2.9163237311,	-0.0273265468,	0.7500000000
5700,	-2.9163237311,	-0.0273265468,	0.5000000000
5701,	-2.9163237311,	-0.0273265468,	0.2500000000
5702,	-2.9163237311,	-0.0273265468,	-0.0000000000
5703,	-2.9163237311,	-0.0273265468,	-0.2500000000
5704,	-2.9163237311,	-0.0273265468,	-0.5000000000
5705,	-2.9163237311,	-0.0273265468,	-0.7500000000
5706,	-2.9243166136,	-0.0611946931,	0.7500000000
5707,	-2.9342539207,	-0.1033019264,	0.5000000000
5708,	-2.9381424161,	-0.1197786019,	0.2500000000
5709,	-2.9392927564,	-0.1246529249,	-0.0000000000
5710,	-2.9381424161,	-0.1197786019,	-0.2500000000
5711,	-2.9342539207,	-0.1033019264,	-0.5000000000
5712,	-2.9243166136,	-0.0611946931,	-0.7500000000
5713,	-2.7341321353,	-0.0325988895,	0.7500000000
5714,	-2.7259158578,	0.0098777153,	0.5000000000
5715,	-2.7227008059,	0.0264989269,	0.2500000000
5716,	-2.7217496916,	0.0314160083,	-0.0000000000
5717,	-2.7227008059,	0.0264989269,	-0.2500000000
5718,	-2.7259158578,	0.0098777153,	-0.5000000000
5719,	-2.7341321353,	-0.0325988895,	-0.7500000000
5720,	-2.7407407407,	-0.0667641326,	0.7500000000
5721,	-2.7407407407,	-0.0667641326,	0.5000000000
5722,	-2.7407407407,	-0.0667641326,	0.2500000000
5723,	-2.7407407407,	-0.0667641326,	-0.0000000000
5724,	-2.7407407407,	-0.0667641326,	-0.2500000000
5725,	-2.7407407407,	-0.0667641326,	-0.5000000000
5726,	-2.7407407407,	-0.0667641326,	-0.7500000000
5727,	-2.7473493462,	-0.1009293756,	0.7500000000
5728,	-2.7555656237,	-0.1434059804,	0.5000000000
5729,	-2.7587806756,	-0.1600271920,	0.2500000000
5730,	-2.7597317899,	-0.1649442734,	-0.0000000000
5731,	-2.7587806756,	-0.1600271920,	-0.2500000000
5732,	-2.7555656237,	-0.1434059804,	-0.5000000000
5733,	-2.7473493462,	-0.1009293756,	-0.7500000000
5734,	-2.5360710112,	-0.0655090566,	0.7500000000
5735,	-2.5306063680,	-0.0225916144,	0.5000000000
5736,	-2.5284680381,	-0.0057979019,	0.2500000000
5737,	-2.5278354524,	-0.0008297893,	-0.0000000000
5738,	-2.5284680381,	-0.0057979019,	-0.2500000000
5739,	-2.5306063680,	-0.0225916144,	-0.5000000000
5740,	-2.5360710112,	-0.0655090566,	-0.7500000000
5741,	-2.5404663923,	-0.1000288788,	0.7500000000
5742,	-2.5404663923,	-0.1000288788,	0.5000000000
5743,	-2.5404663923,	-0.1000288788,	0.2500000000
5744,	-2.5404663923,	-0.1000288788,	-0.0000000000
5745,	-2.5404663923,	-0.1000288788,	-0.2500000000
5746,	-2.5404663923,	-0.1000288788,	-0.5000000000
5747,	-2.5404663923,	-0.1000288788,	-0.7500000000
5748,	-2.5448617734,	-0.1345487010,	0.7500000000
5749,	-2.5503264167,	-0.1774661432,	0.5000000000
5750,	-2.5524647465,	-0.1942598556,	0.2500000000
5751,	-2.5530973323,	-0.1992279683,	-0.0000000000
5752,	-2.5524647465,	-0.1942598556,	-0.2500000000
5753,	-2.5503264167,	-0.1774661432,	-0.5000000000
5754,	-2.5448617734,	-0.1345487010,	-0.7500000000
5755,	-2.2970118468,	-0.0882661725,	0.7500000000
5756,	-2.2944905786,	-0.0450757525,	0.5000000000
5757,	-2.2935039995,	-0.0281752232,	0.2500000000
5758,	-2.2932121381,	-0.0231755107,	-0.0000000000
5759,	-2.2935039995,	-0.0281752232,	-0.2500000000
5760,	-2.2944905786,	-0.0450757525,	-0.5000000000
5761,	-2.2970118468,	-0.0882661725,	-0.7500000000
5762,	-2.2990397805,	-0.1230055592,	0.7500000000
5763,	-2.2990397805,	-0.1230055592,	0.5000000000
5764,	-2.2990397805,	-0.1230055592,	0.2500000000
5765,	-2.2990397805,	-0.1230055592,	-0.0000000000
5766,	-2.2990397805,	-0.1230055592,	-0.2500000000
5767,	-2.2990397805,	-0.1230055592,	-0.5000000000
5768,	-2.2990397805,	-0.1230055592,	-0.7500000000
5769,	-2.3010677143,	-0.1577449458,	0.7500000000
5770,	-2.3035889824,	-0.2009353658,	0.5000000000
5771,	-2.3045755616,	-0.2178358952,	0.2500000000
5772,	-2.3048674229,	-0.2228356077,	-0.0000000000
5773,	-2.3045755616,	-0.2178358952,	-0.2500000000
5774,	-2.3035889824,	-0.2009353658,	-0.5000000000
5775,	-2.3010677143,	-0.1577449458,	-0.7500000000
5776,	-2.0000000000,	-0.0967804201,	0.7500000000
5777,	-2.0000000000,	-0.0535164724,	0.5000000000
5778,	-2.0000000000,	-0.0365871714,	0.2500000000
5779,	-2.0000000000,	-0.0315789474,	-0.0000000000
5780,	-2.0000000000,	-0.0365871714,	-0.2500000000
5781,	-2.0000000000,	-0.0535164724,	-0.5000000000
5782,	-2.0000000000,	-0.0967804201,	-0.7500000000
5783,	-2.0000000000,	-0.1315789474,	0.7500000000
5784,	-2.0000000000,	-0.1315789474,	0.5000000000
5785,	-2.0000000000,	-0.1315789474,	0.2500000000
5786,	-2.0000000000,	-0.1315789474,	-0.0000000000
5787,	-2.0000000000,	-0.1315789474,	-0.2500000000
5788,	-2.0000000000,	-0.1315789474,	-0.5000000000
5789,	-2.0000000000,	-0.1315789474,	-0.7500000000
5790,	-2.0000000000,	-0.1663774746,	0.7500000000
5791,	-2.0000000000,	-0.2096414223,	0.5000000000
5792,	-2.0000000000,	-0.2265707233,	0.2500000000
5793,	-2.0000000000,	-0.2315789474,	-0.0000000000
5794,	-2.0000000000,	-0.2265707233,	-0.2500000000
5795,	-2.0000000000,	-0.2096414223,	-0.5000000000
5796,	-2.0000000000,	-0.1663774746,	-0.7500000000
5797,	-1.7029881532,	-0.0882661725,	0.7500000000
5798,	-1.7055094214,	-0.0450757525,	0.5000000000
5799,	-1.7064960005,	-0.0281752232,	0.2500000000
5800,	-1.7067878619,	-0.0231755107,	-0.0000000000
5801,	-1.7064960005,	-0.0281752232,	-0.2500000000
5802,	-1.7055094214,	-0.0450757525,	-0.5000000000
5803,	-1.7029881532,	-0.0882661725,	-0.7500000000
5804,	-1.7009602195,	-0.1230055592,	0.7500000000
5805,	-1.7009602195,	-0.1230055592,	0.5000000000
5806,	-1.7009602195,	-0.1230055592,	0.2500000000
5807,	-1.7009602195,	-0.1230055592,	-0.0000000000
5808,	-1.7009602195,	-0.1230055592,	-0.2500000000
5809,	-1.7009602195,	-0.1230055592,	-0.5000000000
5810,	-1.7009602195,	-0.1230055592,	-0.7500000000
5811,	-1.6989322857,	-0.1577449458,	0.7500000000
5812,	-1.6964110176,	-0.2009353658,	0.5000000000
5813,	-1.6954244384,	-0.2178358952,	0.2500000000
5814,	-1.6951325771,	-0.2228356077,	-0.0000000000
5815,	-1.6954244384,	-0.2178358952,	-0.2500000000
5816,	-1.6964110176,	-0.2009353658,	-0.5000000000
5817,	-1.6989322857,	-0.1577449458,	-0.7500000000
5818,	-1.4639289888,	-0.0655090566,	0.7500000000
5819,	-1.4693936320,	-0.0225916144,	0.5000000000
5820,	-1.4715319619,	-0.0057979019,	0.2500000000
5821,	-1.4721645476,	-0.0008297893,	-0.0000000000
5822,	-1.4715319619,	-0.0057979019,	-0.2500000000
5823,	-1.4693936320,	-0.0225916144,	-0.5000000000
5824,	-1.4639289888,	-0.0655090566,	-0.7500000000
5825,	-1.4595336077,	-0.1000288788,	0.7500000000
5826,	-1.4595336077,	-0.1000288788,	0.5000000000
5827,	-1.4595336077,	-0.1000288788,	0.2500000000
5828,	-1.4595336077,	-0.1000288788,	-0.0000000000
5829,	-1.4595336077,	-0.1000288788,	-0.2500000000
5830,	-1.4595336077,	-0.1000288788,	-0.5000000000
5831,	-1.4595336077,	-0.1000288788,	-0.7500000000
5832,	-1.4551382266,	-0.1345487010,	0.7500000000
5833,	-1.4496735833,	-0.1774661432,	0.5000000000
5834,	-1.4475352535,	-0.1942598556,	0.2500000000
5835,	-1.4469026677,	-0.1992279683,	-0.0000000000
5836,	-1.4475352535,	-0.1942598556,	-0.2500000000
5837,	-1.4496735833,	-0.1774661432,	-0.5000000000
5838,	-1.4551382266,	-0.1345487010,	-0.7500000000
5839,	-1.2658678647,	-0.0325988895,	0.7500000000
5840,	-1.2740841422,	0.0098777153,	0.5000000000
5841,	-1.2772991941,	0.0264989269,	0.2500000000
5842,	-1.2782503084,	0.0314160083,	-0.0000000000
5843,	-1.2772991941,	0.0264989269,	-0.2500000000
5844,	-1.2740841422,	0.0098777153,	-0.5000000000
5845,	-1.2658678647,	-0.0325988895,	-0.7500000000
5846,	-1.2592592593,	-0.0667641326,	0.7500000000
5847,	-1.2592592593,	-0.0667641326,	0.5000000000
5848,	-1.2592592593,	-0.0667641326,	0.2500000000
5849,	-1.2592592593,	-0.0667641326,	-0.0000000000
5850,	-1.2592592593,	-0.0667641326,	-0.2500000000
5851,	-1.2592592593,	-0.0667641326,	-0.5000000000
5852,	-1.2592592593,	-0.0667641326,	-0.7500000000
5853,	-1.2526506538,	-0.1009293756,	0.7500000000
5854,	-1.2444343763,	-0.1434059804,	0.5000000000
5855,	-1.2412193244,	-0.1600271920,	0.2500000000
5856,	-1.2402682101,	-0.1649442734,	-0.0000000000
5857,	-1.2412193244,	-0.1600271920,	-0.2500000000
5858,	-1.2444343763,	-0.1434059804,	-0.5000000000
5859,	-1.2526506538,	-0.1009293756,	-0.7500000000
5860,	-1.0916691514,	0.0065415994,	0.7500000000
5861,	-1.1016064584,	0.0486488328,	0.5000000000
5862,	-1.1054949539,	0.0651255082,	0.2500000000
5863,	-1.1066452941,	0.0699998313,	-0.0000000000
5864,	-1.1054949539,	0.0651255082,	-0.2500000000
5865,	-1.1016064584,	0.0486488328,	-0.5000000000
5866,	-1.0916691514,	0.0065415994,	-0.7500000000
5867,	-1.0836762689,	-0.0273265468,	0.7500000000
5868,	-1.0836762689,	-0.0273265468,	0.5000000000
5869,	-1.0836762689,	-0.0273265468,	0.2500000000
5870,	-1.0836762689,	-0.0273265468,	-0.0000000000
5871,	-1.0836762689,	-0.0273265468,	-0.2500000000
5872,	-1.0836762689,	-0.0273265468,	-0.5000000000
5873,	-1.0836762689,	-0.0273265468,	-0.7500000000
5874,	-1.0756833864,	-0.0611946931,	0.7500000000
5875,	-1.0657460793,	-0.1033019264,	0.5000000000
5876,	-1.0618575839,	-0.1197786019,	0.2500000000
5877,	-1.0607072436,	-0.1246529249,	-0.0000000000
5878,	-1.0618575839,	-0.1197786019,	-0.2500000000
5879,	-1.0657460793,	-0.1033019264,	-0.5000000000
5880,	-1.0756833864,	-0.0611946931,	-0.7500000000
5881,	-0.9243166136,	0.0480367983,	0.7500000000
5882,	-0.9342539207,	0.0901440317,	0.5000000000
5883,	-0.9381424161,	0.1066207071,	0.2500000000
5884,	-0.9392927564,	0.1114950302,	-0.0000000000
5885,	-0.9381424161,	0.1066207071,	-0.2500000000
5886,	-0.9342539207,	0.0901440317,	-0.5000000000
5887,	-0.9243166136,	0.0480367983,	-0.7500000000
5888,	-0.9163237311,	0.0141686521,	0.7500000000
5889,	-0.9163237311,	0.0141686521,	0.5000000000
5890,	-0.9163237311,	0.0141686521,	0.2500000000
5891,	-0.9163237311,	0.0141686521,	-0.0000000000
5892,	-0.9163237311,	0.0141686521,	-0.2500000000
5893,	-0.9163237311,	0.0141686521,	-0.5000000000
5894,	-0.9163237311,	0.0141686521,	-0.7500000000
5895,	-0.9083308486,	-0.0196994941,	0.7500000000
5896,	-0.8983935416,	-0.0618067275,	0.5000000000
5897,	-0.8945050461,	-0.0782834030,	0.2500000000
5898,	-0.8933547059,	-0.0831577260,	-0.0000000000
5899,	-0.8945050461,	-0.0782834030,	-0.2500000000
5900,	-0.8983935416,	-0.0618067275,	-0.5000000000
5901,	-0.9083308486,	-0.0196994941,	-0.7500000000
5902,	-0.7473493462,	0.0877714809,	0.7500000000
5903,	-0.7555656237,	0.1302480857,	0.5000000000
5904,	-0.7587806756,	0.1468692972,	0.2500000000
5905,	-0.7597317899,	0.1517863786,	-0.0000000000
5906,	-0.7587806756,	0.1468692972,	-0.2500000000
5907,	-0.7555656237,	0.1302480857,	-0.5000000000
5908,	-0.7473493462,	0.0877714809,	-0.7500000000
5909,	-0.7407407407,	0.0536062378,	0.7500000000
5910,	-0.7407407407,	0.0536062378,	0.5000000000
5911,	-0.7407407407,	0.0536062378,	0.2500000000
5912,	-0.7407407407,	0.0536062378,	-0.0000000000
5913,	-0.7407407407,	0.0536062378,	-0.2500000000
5914,	-0.7407407407,	0.0536062378,	-0.5000000000
5915,	-0.7407407407,	0.0536062378,	-0.7500000000
5916,	-0.7341321353,	0.0194409947,	0.7500000000
5917,	-0.7259158578,	-0.0230356101,	0.5000000000
5918,	-0.7227008059,	-0.0396568216,	0.2500000000
5919,	-0.7217496916,	-0.0445739030,	-0.0000000000
5920,	-0.7227008059,	-0.0396568216,	-0.2500000000
5921,	-0.7259158578,	-0.0230356101,	-0.5000000000
5922,	-0.7341321353,	0.0194409947,	-0.7500000000
5923,	-0.5448617734,	0.1213908062,	0.7500000000
5924,	-0.5503264167,	0.1643082485,	0.5000000000
5925,	-0.5524647465,	0.1811019609,	0.2500000000
5926,	-0.5530973323,	0.1860700735,	-0.0000000000
5927,	-0.5524647465,	0.1811019609,	-0.2500000000
5928,	-0.5503264167,	0.1643082485,	-0.5000000000
5929,	-0.5448617734,	0.1213908062,	-0.7500000000
5930,	-0.5404663923,	0.0868709840,	0.7500000000
5931,	-0.5404663923,	0.0868709840,	0.5000000000
5932,	-0.5404663923,	0.0868709840,	0.2500000000
5933,	-0.5404663923,	0.0868709840,	-0.0000000000
5934,	-0.5404663923,	0.0868709840,	-0.2500000000
5935,	-0.5404663923,	0.0868709840,	-0.5000000000
5936,	-0.5404663923,	0.0868709840,	-0.7500000000
5937,	-0.5360710112,	0.0523511618,	0.7500000000
5938,	-0.5306063680,	0.0094337196,	0.5000000000
5939,	-0.5284680381,	-0.0073599928,	0.2500000000
5940,	-0.5278354524,	-0.0123281054,	-0.0000000000
5941,	-0.5284680381,	-0.0073599928,	-0.2500000000
5942,	-0.5306063680,	0.0094337196,	-0.5000000000
5943,	-0.5360710112,	0.0523511618,	-0.7500000000
5944,	-0.3010677143,	0.1445870511,	0.7500000000
5945,	-0.3035889824,	0.1877774711,	0.5000000000
5946,	-0.3045755616,	0.2046780004,	0.2500000000
5947,	-0.3048674229,	0.2096777129,	-0.0000000000
5948,	-0.3045755616,	0.2046780004,	-0.2500000000
5949,	-0.3035889824,	0.1877774711,	-0.5000000000
5950,	-0.3010677143,	0.1445870511,	-0.7500000000
5951,	-0.2990397805,	0.1098476644,	0.7500000000
5952,	-0.2990397805,	0.1098476644,	0.5000000000
5953,	-0.2990397805,	0.1098476644,	0.2500000000
5954,	-0.2990397805,	0.1098476644,	-0.0000000000
5955,	-0.2990397805,	0.1098476644,	-0.2500000000
5956,	-0.2990397805,	0.1098476644,	-0.5000000000
5957,	-0.2990397805,	0.1098476644,	-0.7500000000
5958,	-0.2970118468,	0.0751082778,	0.7500000000
5959,	-0.2944905786,	0.0319178578,	0.5000000000
5960,	-0.2935039995,	0.0150173284,	0.2500000000
5961,	-0.2932121381,	0.0100176159,	-0.0000000000
5962,	-0.2935039995,	0.0150173284,	-0.2500000000
5963,	-0.2944905786,	0.0319178578,	-0.5000000000
5964,	-0.2970118468,	0.0751082778,	-0.7500000000
5965,	-0.0000000000,	0.1532195799,	0.7500000000
5966,	-0.0000000000,	0.1964835276,	0.5000000000
5967,	-0.0000000000,	0.2134128286,	0.2500000000
5968,	-0.0000000000,	0.2184210526,	-0.0000000000
5969,	-0.0000000000,	0.2134128286,	-0.2500000000
5970,	-0.0000000000,	0.1964835276,	-0.5000000000
5971,	-0.0000000000,	0.1532195799,	-0.7500000000
5972,	-0.0000000000,	0.1184210526,	0.7500000000
5973,	-0.0000000000,	0.1184210526,	0.5000000000
5974,	-0.0000000000,	0.1184210526,	0.2500000000
5975,	-0.0000000000,	0.1184210526,	-0.0000000000
5976,	-0.0000000000,	0.1184210526,	-0.2500000000
5977,	-0.0000000000,	0.1184210526,	-0.5000000000
5978,	-0.0000000000,	0.1184210526,	-0.7500000000
5979,	-0.0000000000,	0.0836225254,	0.7500000000
5980,	-0.0000000000,	0.0403585777,	0.5000000000
5981,	-0.0000000000,	0.0234292767,	0.2500000000
5982,	-0.0000000000,	0.0184210526,	-0.0000000000
5983,	-0.0000000000,	0.0234292767,	-0.2500000000
5984,	-0.0000000000,	0.0403585777,	-0.5000000000
5985,	-0.0000000000,	0.0836225254,	-0.7500000000
5986,	-0.0000000000,	0.1532195799,	0.7500000000
5987,	-0.0000000000,	0.1964835276,	0.5000000000
5988,	-0.0000000000,	0.2134128286,	0.2500000000
5989,	-0.0000000000,	0.2184210526,	-0.0000000000
5990,	-0.0000000000,	0.2134128286,	-0.2500000000
5991,	-0.0000000000,	0.1964835276,	-0.5000000000
5992,	-0.0000000000,	0.1532195799,	-0.7500000000
5993,	-0.0000000000,	0.1184210526,	0.7500000000
5994,	-0.0000000000,	0.1184210526,	0.5000000000
5995,	-0.0000000000,	0.1184210526,	0.2500000000
5996,	-0.0000000000,	0.1184210526,	-0.0000000000
5997,	-0.0000000000,	0.1184210526,	-0.2500000000
5998,	-0.0000000000,	0.1184210526,	-0.5000000000
5999,	-0.0000000000,	0.1184210526,	-0.7500000000
6000,	-0.0000000000,	0.0836225254,	0.7500000000
6001,	-0.0000000000,	0.0403585777,	0.5000000000
6002,	-0.0000000000,	0.0234292767,	0.2500000000
6003,	-0.0000000000,	0.0184210526,	-0.0000000000
6004,	-0.0000000000,	0.0234292767,	-0.2500000000
6005,	-0.0000000000,	0.0403585777,	-0.5000000000
6006,	-0.0000000000,	0.0836225254,	-0.7500000000
6007,	0.3010677143,	0.1445870511,	0.7500000000
6008,	0.3035889824,	0.1877774711,	0.5000000000
6009,	0.3045755616,	0.2046780004,	0.2500000000
6010,	0.3048674229,	0.2096777129,	-0.0000000000
6011,	0.3045755616,	0.2046780004,	-0.2500000000
6012,	0.3035889824,	0.1877774711,	-0.5000000000
6013,	0.3010677143,	0.1445870511,	-0.7500000000
6014,	0.2990397805,	0.1098476644,	0.7500000000
6015,	0.2990397805,	0.1098476644,	0.5000000000
6016,	0.2990397805,	0.1098476644,	0.2500000000
6017,	0.2990397805,	0.1098476644,	-0.0000000000
6018,	0.2990397805,	0.1098476644,	-0.2500000000
6019,	0.2990397805,	0.1098476644,	-0.5000000000
6020,	0.2990397805,	0.1098476644,	-0.7500000000
6021,	0.2970118468,	0.0751082778,	0.7500000000
6022,	0.2944905786,	0.0319178578,	0.5000000000
6023,	0.2935039995,	0.0150173284,	0.2500000000
6024,	0.2932121381,	0.0100176159,	-0.0000000000
6025,	0.2935039995,	0.0150173284,	-0.2500000000
6026,	0.2944905786,	0.0319178578,	-0.5000000000
6027,	0.2970118468,	0.0751082778,	-0.7500000000
6028,	0.5448617734,	0.1213908062,	0.7500000000
6029,	0.5503264167,	0.1643082485,	0.5000000000
6030,	0.5524647465,	0.1811019609,	0.2500000000
6031,	0.5530973323,	0.1860700735,	-0.0000000000
6032,	0.5524647465,	0.1811019609,	-0.2500000000
6033,	0.5503264167,	0.1643082485,	-0.5000000000
6034,	0.5448617734,	0.1213908062,	-0.7500000000
6035,	0.5404663923,	0.0868709840,	0.7500000000
6036,	0.5404663923,	0.0868709840,	0.5000000000
6037,	0.5404663923,	0.0868709840,	0.2500000000
6038,	0.5404663923,	0.0868709840,	-0.0000000000
6039,	0.5404663923,	0.0868709840,	-0.2500000000
6040,	0.5404663923,	0.0868709840,	-0.5000000000
6041,	0.5404663923,	0.0868709840,	-0.7500000000
6042,	0.5360710112,	0.0523511618,	0.7500000000
6043,	0.5306063680,	0.0094337196,	0.5000000000
6044,	0.5284680381,	-0.0073599928,	0.2500000000
6045,	0.5278354524,	-0.0123281054,	-0.0000000000
6046,	0.5284680381,	-0.0073599928,	-0.2500000000
6047,	0.5306063680,	0.0094337196,	-0.5000000000
6048,	0.5360710112,	0.0523511618,	-0.7500000000
6049,	0.7473493462,	0.0877714809,	0.7500000000
6050,	0.7555656237,	0.1302480857,	0.5000000000
6051,	0.7587806756,	0.1468692972,	0.2500000000
6052,	0.7597317899,	0.1517863786,	-0.0000000000
6053,	0.7587806756,	0.1468692972,	-0.2500000000
6054,	0.7555656237,	0.1302480857,	-0.5000000000
6055,	0.7473493462,	0.0877714809,	-0.7500000000
6056,	0.7407407407,	0.0536062378,	0.7500000000
6057,	0.7407407407,	0.0536062378,	0.5000000000
6058,	0.7407407407,	0.0536062378,	0.2500000000
6059,	0.7407407407,	0.0536062378,	-0.0000000000
6060,	0.7407407407,	0.0536062378,	-0.2500000000
6061,	0.7407407407,	0.0536062378,	-0.5000000000
6062,	0.7407407407,	0.0536062378,	-0.7500000000
6063,	0.7341321353,	0.0194409947,	0.7500000000
6064,	0.7259158578,	-0.0230356101,	0.5000000000
6065,	0.7227008059,	-0.0396568216,	0.2500000000
6066,	0.7217496916,	-0.0445739030,	-0.0000000000
6067,	0.7227008059,	-0.0396568216,	-0.2500000000
6068,	0.7259158578,	-0.0230356101,	-0.5000000000
6069,	0.7341321353,	0.0194409947,	-0.7500000000
6070,	0.9243166136,	0.0480367983,	0.7500000000
6071,	0.9342539207,	0.0901440317,	0.5000000000
6072,	0.9381424161,	0.1066207071,	0.2500000000
6073,	0.9392927564,	0.1114950302,	-0.0000000000
6074,	0.9381424161,	0.1066207071,	-0.2500000000
6075,	0.9342539207,	0.0901440317,	-0.5000000000
6076,	0.9243166136,	0.0480367983,	-0.7500000000
6077,	0.9163237311,	0.0141686521,	0.7500000000
6078,	0.9163237311,	0.0141686521,	0.5000000000
6079,	0.9163237311,	0.0141686521,	0.2500000000
6080,	0.9163237311,	0.0141686521,	-0.0000000000
6081,	0.9163237311,	0.0141686521,	-0.2500000000
6082,	0.9163237311,	0.0141686521,	-0.5000000000
6083,	0.9163237311,	0.0141686521,	-0.7500000000
6084,	0.9083308486,	-0.0196994941,	0.7500000000
6085,	0.8983935416,	-0.0618067275,	0.5000000000
6086,	0.8945050461,	-0.0782834030,	0.2500000000
6087,	0.8933547059,	-0.0831577260,	-0.0000000000
6088,	0.8945050461,	-0.0782834030,	-0.2500000000
6089,	0.8983935416,	-0.0618067275,	-0.5000000000
6090,	0.9083308486,	-0.0196994941,	-0.7500000000
6091,	1.0916691514,	0.0065415994,	0.7500000000
6092,	1.1016064584,	0.0486488328,	0.5000000000
6093,	1.1054949539,	0.0651255082,	0.2500000000
6094,	1.1066452941,	0.0699998313,	-0.0000000000
6095,	1.1054949539,	0.0651255082,	-0.2500000000
6096,	1.1016064584,	0.0486488328,	-0.5000000000
6097,	1.0916691514,	0.0065415994,	-0.7500000000
6098,	1.0836762689,	-0.0273265468,	0.7500000000
6099,	1.0836762689,	-0.0273265468,	0.5000000000
6100,	1.0836762689,	-0.0273265468,	0.2500000000
6101,	1.0836762689,	-0.0273265468,	-0.0000000000
6102,	1.0836762689,	-0.0273265468,	-0.2500000000
6103,	1.0836762689,	-0.0273265468,	-0.5000000000
6104,	1.0836762689,	-0.0273265468,	-0.7500000000
6105,	1.0756833864,	-0.0611946931,	0.7500000000
6106,	1.0657460793,	-0.1033019264,	0.5000000000
6107,	1.0618575839,	-0.1197786019,	0.2500000000
6108,	1.0607072436,	-0.1246529249,	-0.0000000000
6109,	1.0618575839,	-0.1197786019,	-0.2500000000
6110,	1.0657460793,	-0.1033019264,	-0.5000000000
6111,	1.0756833864,	-0.0611946931,	-0.7500000000
6112,	1.2658678647,	-0.0325988895,	0.7500000000
6113,	1.2740841422,	0.0098777153,	0.5000000000
6114,	1.2772991941,	0.0264989269,	0.2500000000
6115,	1.2782503084,	0.0314160083,	-0.0000000000
6116,	1.2772991941,	0.0264989269,	-0.2500000000
6117,	1.2740841422,	0.0098777153,	-0.5000000000
6118,	1.2658678647,	-0.0325988895,	-0.7500000000
6119,	1.2592592593,	-0.0667641326,	0.7500000000
6120,	1.2592592593,	-0.0667641326,	0.5000000000
6121,	1.2592592593,	-0.0667641326,	0.2500000000
6122,	1.2592592593,	-0.0667641326,	-0.0000000000
6123,	1.2592592593,	-0.0667641326,	-0.2500000000
6124,	1.2592592593,	-0.0667641326,	-0.5000000000
6125,	1.2592592593,	-0.0667641326,	-0.7500000000
6126,	1.2526506538,	-0.1009293756,	0.7500000000
6127,	1.2444343763,	-0.1434059804,	0.5000000000
6128,	1.2412193244,	-0.1600271920,	0.2500000000
6129,	1.2402682101,	-0.1649442734,	-0.0000000000
6130,	1.2412193244,	-0.1600271920,	-0.2500000000
6131,	1.2444343763,	-0.1434059804,	-0.5000000000
6132,	1.2526506538,	-0.1009293756,	-0.7500000000
6133,	1.4639289888,	-0.0655090566,	0.7500000000
6134,	1.4693936320,	-0.0225916144,	0.5000000000
6135,	1.4715319619,	-0.0057979019,	0.2500000000
6136,	1.4721645476,	-0.0008297893,	-0.0000000000
6137,	1.4715319619,	-0.0057979019,	-0.2500000000
6138,	1.4693936320,	-0.0225916144,	-0.5000000000
6139,	1.4639289888,	-0.0655090566,	-0.7500000000
6140,	1.4595336077,	-0.1000288788,	0.7500000000
6141,	1.4595336077,	-0.1000288788,	0.5000000000
6142,	1.4595336077,	-0.1000288788,	0.2500000000
6143,	1.4595336077,	-0.1000288788,	-0.0000000000
6144,	1.4595336077,	-0.1000288788,	-0.2500000000
6145,	1.4595336077,	-0.1000288788,	-0.5000000000
6146,	1.4595336077,	-0.1000288788,	-0.7500000000
6147,	1.4551382266,	-0.1345487010,	0.7500000000
6148,	1.4496735833,	-0.1774661432,	0.5000000000
6149,	1.4475352535,	-0.1942598556,	0.2500000000
6150,	1.4469026677,	-0.1992279683,	-0.0000000000
6151,	1.4475352535,	-0.1942598556,	-0.2500000000
6152,	1.4496735833,	-0.1774661432,	-0.5000000000
6153,	1.4551382266,	-0.1345487010,	-0.7500000000
6154,	1.7029881532,	-0.0882661725,	0.7500000000
6155,	1.7055094214,	-0.0450757525,	0.5000000000
6156,	1.7064960005,	-0.0281752232,	0.2500000000
6157,	1.7067878619,	-0.0231755107,	-0.0000000000
6158,	1.7064960005,	-0.0281752232,	-0.2500000000
6159,	1.7055094214,	-0.0450757525,	-0.5000000000
6160,	1.7029881532,	-0.0882661725,	-0.7500000000
6161,	1.7009602195,	-0.1230055592,	0.7500000000
6162,	1.7009602195,	-0.1230055592,	0.5000000000
6163,	1.7009602195,	-0.1230055592,	0.2500000000
6164,	1.7009602195,	-0.1230055592,	-0.0000000000
6165,	1.7009602195,	-0.1230055592,	-0.2500000000
6166,	1.7009602195,	-0.1230055592,	-0.5000000000
6167,	1.7009602195,	-0.1230055592,	-0.7500000000
6168,	1.6989322857,	-0.1577449458,	0.7500000000
6169,	1.6964110176,	-0.2009353658,	0.5000000000
6170,	1.6954244384,	-0.2178358952,	0.2500000000
6171,	1.6951325771,	-0.2228356077,	-0.0000000000
6172,	1.6954244384,	-0.2178358952,	-0.2500000000
6173,	1.6964110176,	-0.2009353658,	-0.5000000000
6174,	1.6989322857,	-0.1577449458,	-0.7500000000
6175,	2.0000000000,	-0.0967804201,	0.7500000000
6176,	2.0000000000,	-0.0535164724,	0.5000000000
6177,	2.0000000000,	-0.0365871714,	0.2500000000
6178,	2.0000000000,	-0.0315789474,	-0.0000000000
6179,	2.0000000000,	-0.0365871714,	-0.2500000000
6180,	2.0000000000,	-0.0535164724,	-0.5000000000
6181,	2.0000000000,	-0.0967804201,	-0.7500000000
6182,	2.0000000000,	-0.1315789474,	0.7500000000
6183,	2.0000000000,	-0.1315789474,	0.5000000000
6184,	2.0000000000,	-0.1315789474,	0.2500000000
6185,	2.0000000000,	-0.1315789474,	-0.0000000000
6186,	2.0000000000,	-0.1315789474,	-0.2500000000
6187,	2.0000000000,	-0.1315789474,	-0.5000000000
6188,	2.0000000000,	-0.1315789474,	-0.7500000000
6189,	2.0000000000,	-0.1663774746,	0.7500000000
6190,	2.0000000000,	-0.2096414223,	0.5000000000
6191,	2.0000000000,	-0.2265707233,	0.2500000000
6192,	2.0000000000,	-0.2315789474,	-0.0000000000
6193,	2.0000000000,	-0.2265707233,	-0.2500000000
6194,	2.0000000000,	-0.2096414223,	-0.5000000000
6195,	2.0000000000,	-0.1663774746,	-0.7500000000
6196,	2.2970118468,	-0.0882661725,	0.7500000000
6197,	2.2944905786,	-0.0450757525,	0.5000000000
6198,	2.2935039995,	-0.0281752232,	0.2500000000
6199,	2.2932121381,	-0.0231755107,	-0.0000000000
6200,	2.2935039995,	-0.0281752232,	-0.2500000000
6201,	2.2944905786,	-0.0450757525,	-0.5000000000
6202,	2.2970118468,	-0.0882661725,	-0.7500000000
6203,	2.2990397805,	-0.1230055592,	0.7500000000
6204,	2.2990397805,	-0.1230055592,	0.5000000000
6205,	2.2990397805,	-0.1230055592,	0.2500000000
6206,	2.2990397805,	-0.1230055592,	-0.0000000000
6207,	2.2990397805,	-0.1230055592,	-0.2500000000
6208,	2.2990397805,	-0.1230055592,	-0.5000000000
6209,	2.2990397805,	-0.1230055592,	-0.7500000000
6210,	2.3010677143,	-0.1577449458,	0.7500000000
6211,	2.3035889824,	-0.2009353658,	0.5000000000
6212,	2.3045755616,	-0.2178358952,	0.2500000000
6213,	2.3048674229,	-0.2228356077,	-0.0000000000
6214,	2.3045755616,	-0.2178358952,	-0.2500000000
6215,	2.3035889824,	-0.2009353658,	-0.5000000000
6216,	2.3010677143,	-0.1577449458,	-0.7500000000
6217,	2.5360710112,	-0.0655090566,	0.7500000000
6218,	2.5306063680,	-0.0225916144,	0.5000000000
6219,	2.5284680381,	-0.0057979019,	0.2500000000
6220,	2.5278354524,	-0.0008297893,	-0.0000000000
6221,	2.5284680381,	-0.0057979019,	-0.2500000000
6222,	2.5306063680,	-0.0225916144,	-0.5000000000
6223,	2.5360710112,	-0.0655090566,	-0.7500000000
6224,	2.5404663923,	-0.1000288788,	0.7500000000
6225,	2.5404663923,	-0.1000288788,	0.5000000000
6226,	2.5404663923,	-0.1000288788,	0.2500000000
6227,	2.5404663923,	-0.1000288788,	-0.0000000000
6228,	2.5404663923,	-0.1000288788,	-0.2500000000
6229,	2.5404663923,	-0.1000288788,	-0.5000000000
6230,	2.5404663923,	-0.1000288788,	-0.7500000000
6231,	2.5448617734,	-0.1345487010,	0.7500000000
6232,	2.5503264167,	-0.1774661432,	0.5000000000
6233,	2.5524647465,	-0.1942598556,	0.2500000000
6234,	2.5530973323,	-0.1992279683,	-0.0000000000
6235,	2.5524647465,	-0.1942598556,	-0.2500000000
6236,	2.5503264167,	-0.1774661432,	-0.5000000000
6237,	2.5448617734,	-0.1345487010,	-0.7500000000
6238,	2.7341321353,	-0.0325988895,	0.7500000000
6239,	2.7259158578,	0.0098777153,	0.5000000000
6240,	2.7227008059,	0.0264989269,	0.2500000000
6241,	2.7217496916,	0.0314160083,	-0.0000000000
6242,	2.7227008059,	0.0264989269,	-0.2500000000
6243,	2.7259158578,	0.0098777153,	-0.5000000000
6244,	2.7341321353,	-0.0325988895,	-0.7500000000
6245,	2.7407407407,	-0.0667641326,	0.7500000000
6246,	2.7407407407,	-0.0667641326,	0.5000000000
6247,	2.7407407407,	-0.0667641326,	0.2500000000
6248,	2.7407407407,	-0.0667641326,	-0.0000000000
6249,	2.7407407407,	-0.0667641326,	-0.2500000000
6250,	2.7407407407,	-0.0667641326,	-0.5000000000
6251,	2.7407407407,	-0.0667641326,	-0.7500000000
6252,	2.7473493462,	-0.1009293756,	0.7500000000
6253,	2.7555656237,	-0.1434059804,	0.5000000000
6254,	2.7587806756,	-0.1600271920,	0.2500000000
6255,	2.7597317899,	-0.1649442734,	-0.0000000000
6256,	2.7587806756,	-0.1600271920,	-0.2500000000
6257,	2.7555656237,	-0.1434059804,	-0.5000000000
6258,	2.7473493462,	-0.1009293756,	-0.7500000000
6259,	2.9083308486,	0.0065415994,	0.7500000000
6260,	2.8983935416,	0.0486488328,	0.5000000000
6261,	2.8945050461,	0.0651255082,	0.2500000000
6262,	2.8933547059,	0.0699998313,	-0.0000000000
6263,	2.8945050461,	0.0651255082,	-0.2500000000
6264,	2.8983935416,	0.0486488328,	-0.5000000000
6265,	2.9083308486,	0.0065415994,	-0.7500000000
6266,	2.9163237311,	-0.0273265468,	0.7500000000
6267,	2.9163237311,	-0.0273265468,	0.5000000000
6268,	2.9163237311,	-0.0273265468,	0.2500000000
6269,	2.9163237311,	-0.0273265468,	-0.0000000000
6270,	2.9163237311,	-0.0273265468,	-0.2500000000
6271,	2.9163237311,	-0.0273265468,	-0.5000000000
6272,	2.9163237311,	-0.0273265468,	-0.7500000000
6273,	2.9243166136,	-0.0611946931,	0.7500000000
6274,	2.9342539207,	-0.1033019264,	0.5000000000
6275,	2.9381424161,	-0.1197786019,	0.2500000000
6276,	2.9392927564,	-0.1246529249,	-0.0000000000
6277,	2.9381424161,	-0.1197786019,	-0.2500000000
6278,	2.9342539207,	-0.1033019264,	-0.5000000000
6279,	2.9243166136,	-0.0611946931,	-0.7500000000
6280,	3.0756833864,	0.0480367983,	0.7500000000
6281,	3.0657460793,	0.0901440317,	0.5000000000
6282,	3.0618575839,	0.1066207071,	0.2500000000
6283,	3.0607072436,	0.1114950302,	-0.0000000000
6284,	3.0618575839,	0.1066207071,	-0.2500000000
6285,	3.0657460793,	0.0901440317,	-0.5000000000
6286,	3.0756833864,	0.0480367983,	-0.7500000000
6287,	3.0836762689,	0.0141686521,	0.7500000000
6288,	3.0836762689,	0.0141686521,	0.5000000000
6289,	3.0836762689,	0.0141686521,	0.2500000000
6290,	3.0836762689,	0.0141686521,	-0.0000000000
6291,	3.0836762689,	0.0141686521,	-0.2500000000
6292,	3.0836762689,	0.0141686521,	-0.5000000000
6293,	3.0836762689,	0.0141686521,	-0.7500000000
6294,	3.0916691514,	-0.0196994941,	0.7500000000
6295,	3.1016064584,	-0.0618067275,	0.5000000000
6296,	3.1054949539,	-0.0782834030,	0.2500000000
6297,	3.1066452941,	-0.0831577260,	-0.0000000000
6298,	3.1054949539,	-0.0782834030,	-0.2500000000
6299,	3.1016064584,	-0.0618067275,	-0.5000000000
6300,	3.0916691514,	-0.0196994941,	-0.7500000000
6301,	3.2526506538,	0.0877714809,	0.7500000000
6302,	3.2444343763,	0.1302480857,	0.5000000000
6303,	3.2412193244,	0.1468692972,	0.2500000000
6304,	3.2402682101,	0.1517863786,	-0.0000000000
6305,	3.2412193244,	0.1468692972,	-0.2500000000
6306,	3.2444343763,	0.1302480857,	-0.5000000000
6307,	3.2526506538,	0.0877714809,	-0.7500000000
6308,	3.2592592593,	0.0536062378,	0.7500000000
6309,	3.2592592593,	0.0536062378,	0.5000000000
6310,	3.2592592593,	0.0536062378,	0.2500000000
6311,	3.2592592593,	0.0536062378,	-0.0000000000
6312,	3.2592592593,	0.0536062378,	-0.2500000000
6313,	3.2592592593,	0.0536062378,	-0.5000000000
6314,	3.2592592593,	0.0536062378,	-0.7500000000
6315,	3.2658678647,	0.0194409947,	0.7500000000
6316,	3.2740841422,	-0.0230356101,	0.5000000000
6317,	3.2772991941,	-0.0396568216,	0.2500000000
6318,	3.2782503084,	-0.0445739030,	-0.0000000000
6319,	3.2772991941,	-0.0396568216,	-0.2500000000
6320,	3.2740841422,	-0.0230356101,	-0.5000000000
6321,	3.2658678647,	0.0194409947,	-0.7500000000
6322,	3.4551382266,	0.1213908062,	0.7500000000
6323,	3.4496735833,	0.1643082485,	0.5000000000
6324,	3.4475352535,	0.1811019609,	0.2500000000
6325,	3.4469026677,	0.1860700735,	-0.0000000000
6326,	3.4475352535,	0.1811019609,	-0.2500000000
6327,	3.4496735833,	0.1643082485,	-0.5000000000
6328,	3.4551382266,	0.1213908062,	-0.7500000000
6329,	3.4595336077,	0.0868709840,	0.7500000000
6330,	3.4595336077,	0.0868709840,	0.5000000000
6331,	3.4595336077,	0.0868709840,	0.2500000000
6332,	3.4595336077,	0.0868709840,	-0.0000000000
6333,	3.4595336077,	0.0868709840,	-0.2500000000
6334,	3.4595336077,	0.0868709840,	-0.5000000000
6335,	3.4595336077,	0.0868709840,	-0.7500000000
6336,	3.4639289888,	0.0523511618,	0.7500000000
6337,	3.4693936320,	0.0094337196,	0.5000000000
6338,	3.4715319619,	-0.0073599928,	0.2500000000
6339,	3.4721645476,	-0.0123281054,	-0.0000000000
6340,	3.4715319619,	-0.0073599928,	-0.2500000000
6341,	3.4693936320,	0.0094337196,	-0.5000000000
6342,	3.4639289888,	0.0523511618,	-0.7500000000
6343,	3.6989322857,	0.1445870511,	0.7500000000
6344,	3.6964110176,	0.1877774711,	0.5000000000
6345,	3.6954244384,	0.2046780004,	0.2500000000
6346,	3.6951325771,	0.2096777129,	-0.0000000000
6347,	3.6954244384,	0.2046780004,	-0.2500000000
6348,	3.6964110176,	0.1877774711,	-0.5000000000
6349,	3.6989322857,	0.1445870511,	-0.7500000000
6350,	3.7009602195,	0.1098476644,	0.7500000000
6351,	3.7009602195,	0.1098476644,	0.5000000000
6352,	3.7009602195,	0.1098476644,	0.2500000000
6353,	3.7009602195,	0.1098476644,	-0.0000000000
6354,	3.7009602195,	0.1098476644,	-0.2500000000
6355,	3.7009602195,	0.1098476644,	-0.5000000000
6356,	3.7009602195,	0.1098476644,	-0.7500000000
6357,	3.7029881532,	0.0751082778,	0.7500000000
6358,	3.7055094214,	0.0319178578,	0.5000000000
6359,	3.7064960005,	0.0150173284,	0.2500000000
6360,	3.7067878619,	0.0100176159,	-0.0000000000
6361,	3.7064960005,	0.0150173284,	-0.2500000000
6362,	3.7055094214,	0.0319178578,	-0.5000000000
6363,	3.7029881532,	0.0751082778,	-0.7500000000
6364,	4.0000000000,	0.1532195799,	0.7500000000
6365,	4.0000000000,	0.1964835276,	0.5000000000
6366,	4.0000000000,	0.2134128286,	0.2500000000
6367,	4.0000000000,	0.2184210526,	-0.0000000000
6368,	4.0000000000,	0.2134128286,	-0.2500000000
6369,	4.0000000000,	0.1964835276,	-0.5000000000
6370,	4.0000000000,	0.1532195799,	-0.7500000000
6371,	4.0000000000,	0.1184210526,	0.7500000000
6372,	4.0000000000,	0.1184210526,	0.5000000000
6373,	4.0000000000,	0.1184210526,	0.2500000000
6374,	4.0000000000,	0.1184210526,	-0.0000000000
6375,	4.0000000000,	0.1184210526,	-0.2500000000
6376,	4.0000000000,	0.1184210526,	-0.5000000000
6377,	4.0000000000,	0.1184210526,	-0.7500000000
6378,	4.0000000000,	0.0836225254,	0.7500000000
6379,	4.0000000000,	0.0403585777,	0.5000000000
6380,	4.0000000000,	0.0234292767,	0.2500000000
6381,	4.0000000000,	0.0184210526,	-0.0000000000
6382,	4.0000000000,	0.0234292767,	-0.2500000000
6383,	4.0000000000,	0.0403585777,	-0.5000000000
6384,	4.0000000000,	0.0836225254,	-0.7500000000
6385,	-4.0000000000,	-0.0836225254,	2.7500000000
6386,	-4.0000000000,	-0.0403585777,	2.5000000000
6387,	-4.0000000000,	-0.0234292767,	2.2500000000
6388,	-4.0000000000,	-0.0184210526,	2.0000000000
6389,	-4.0000000000,	-0.0234292767,	1.7500000000
6390,	-4.0000000000,	-0.0403585777,	1.5000000000
6391,	-4.0000000000,	-0.0836225254,	1.2500000000
6392,	-4.0000000000,	-0.1184210526,	2.7500000000
6393,	-4.0000000000,	-0.1184210526,	2.5000000000
6394,	-4.0000000000,	-0.1184210526,	2.2500000000
6395,	-4.0000000000,	-0.1184210526,	2.0000000000
6396,	-4.0000000000,	-0.1184210526,	1.7500000000
6397,	-4.0000000000,	-0.1184210526,	1.5000000000
6398,	-4.0000000000,	-0.1184210526,	1.2500000000
6399,	-4.0000000000,	-0.1532195799,	2.7500000000
6400,	-4.0000000000,	-0.1964835276,	2.5000000000
6401,	-4.0000000000,	-0.2134128286,	2.2500000000
6402,	-4.0000000000,	-0.2184210526,	2.0000000000
6403,	-4.0000000000,	-0.2134128286,	1.7500000000
6404,	-4.0000000000,	-0.1964835276,	1.5000000000
6405,	-4.0000000000,	-0.1532195799,	1.2500000000
6406,	-3.7029881532,	-0.0751082778,	2.7500000000
6407,	-3.7055094214,	-0.0319178578,	2.5000000000
6408,	-3.7064960005,	-0.0150173284,	2.2500000000
6409,	-3.7067878619,	-0.0100176159,	2.0000000000
6410,	-3.7064960005,	-0.0150173284,	1.7500000000
6411,	-3.7055094214,	-0.0319178578,	1.5000000000
6412,	-3.7029881532,	-0.0751082778,	1.2500000000
6413,	-3.7009602195,	-0.1098476644,	2.7500000000
6414,	-3.7009602195,	-0.1098476644,	2.5000000000
6415,	-3.7009602195,	-0.1098476644,	2.2500000000
6416,	-3.7009602195,	-0.1098476644,	2.0000000000
6417,	-3.7009602195,	-0.1098476644,	1.7500000000
6418,	-3.7009602195,	-0.1098476644,	1.5000000000
6419,	-3.7009602195,	-0.1098476644,	1.2500000000
6420,	-3.6989322857,	-0.1445870511,	2.7500000000
6421,	-3.6964110176,	-0.1877774711,	2.5000000000
6422,	-3.6954244384,	-0.2046780004,	2.2500000000
6423,	-3.6951325771,	-0.2096777129,	2.0000000000
6424,	-3.6954244384,	-0.2046780004,	1.7500000000
6425,	-3.6964110176,	-0.1877774711,	1.5000000000
6426,	-3.6989322857,	-0.1445870511,	1.2500000000
6427,	-3.4639289888,	-0.0523511618,	2.7500000000
6428,	-3.4693936320,	-0.0094337196,	2.5000000000
6429,	-3.4715319619,	0.0073599928,	2.2500000000
6430,	-3.4721645476,	0.0123281054,	2.0000000000
6431,	-3.4715319619,	0.0073599928,	1.7500000000
6432,	-3.4693936320,	-0.0094337196,	1.5000000000
6433,	-3.4639289888,	-0.0523511618,	1.2500000000
6434,	-3.4595336077,	-0.0868709840,	2.7500000000
6435,	-3.4595336077,	-0.0868709840,	2.5000000000
6436,	-3.4595336077,	-0.0868709840,	2.2500000000
6437,	-3.4595336077,	-0.0868709840,	2.0000000000
6438,	-3.4595336077,	-0.0868709840,	1.7500000000
6439,	-3.4595336077,	-0.0868709840,	1.5000000000
6440,	-3.4595336077,	-0.0868709840,	1.2500000000
6441,	-3.4551382266,	-0.1213908062,	2.7500000000
6442,	-3.4496735833,	-0.1643082485,	2.5000000000
6443,	-3.4475352535,	-0.1811019609,	2.2500000000
6444,	-3.4469026677,	-0.1860700735,	2.0000000000
6445,	-3.4475352535,	-0.1811019609,	1.7500000000
6446,	-3.4496735833,	-0.1643082485,	1.5000000000
6447,	-3.4551382266,	-0.1213908062,	1.2500000000
6448,	-3.2658678647,	-0.0194409947,	2.7500000000
6449,	-3.2740841422,	0.0230356101,	2.5000000000
6450,	-3.2772991941,	0.0396568216,	2.2500000000
6451,	-3.2782503084,	0.0445739030,	2.0000000000
6452,	-3.2772991941,	0.0396568216,	1.7500000000
6453,	-3.2740841422,	0.0230356101,	1.5000000000
6454,	-3.2658678647,	-0.0194409947,	1.2500000000
6455,	-3.2592592593,	-0.0536062378,	2.7500000000
6456,	-3.2592592593,	-0.0536062378,	2.5000000000
6457,	-3.2592592593,	-0.0536062378,	2.2500000000
6458,	-3.2592592593,	-0.0536062378,	2.0000000000
6459,	-3.2592592593,	-0.0536062378,	1.7500000000
6460,	-3.2592592593,	-0.0536062378,	1.5000000000
6461,	-3.2592592593,	-0.0536062378,	1.2500000000
6462,	-3.2526506538,	-0.0877714809,	2.7500000000
6463,	-3.2444343763,	-0.1302480857,	2.5000000000
6464,	-3.2412193244,	-0.1468692972,	2.2500000000
6465,	-3.2402682101,	-0.1517863786,	2.0000000000
6466,	-3.2412193244,	-0.1468692972,	1.7500000000
6467,	-3.2444343763,	-0.1302480857,	1.5000000000
6468,	-3.2526506538,	-0.0877714809,	1.2500000000
6469,	-3.0916691514,	0.0196994941,	2.7500000000
6470,	-3.1016064584,	0.0618067275,	2.5000000000
6471,	-3.1054949539,	0.0782834030,	2.2500000000
6472,	-3.1066452941,	0.0831577260,	2.0000000000
6473,	-3.1054949539,	0.0782834030,	1.7500000000
6474,	-3.1016064584,	0.0618067275,	1.5000000000
6475,	-3.0916691514,	0.0196994941,	1.2500000000
6476,	-3.0836762689,	-0.0141686521,	2.7500000000
6477,	-3.0836762689,	-0.0141686521,	2.5000000000
6478,	-3.0836762689,	-0.0141686521,	2.2500000000
6479,	-3.0836762689,	-0.0141686521,	2.0000000000
6480,	-3.0836762689,	-0.0141686521,	1.7500000000
6481,	-3.0836762689,	-0.0141686521,	1.5000000000
6482,	-3.0836762689,	-0.0141686521,	1.2500000000
6483,	-3.0756833864,	-0.0480367983,	2.7500000000
6484,	-3.0657460793,	-0.0901440317,	2.5000000000
6485,	-3.0618575839,	-0.1066207071,	2.2500000000
6486,	-3.0607072436,	-0.1114950302,	2.0000000000
6487,	-3.0618575839,	-0.1066207071,	1.7500000000
6488,	-3.0657460793,	-0.0901440317,	1.5000000000
6489,	-3.0756833864,	-0.0480367983,	1.2500000000
6490,	-2.9243166136,	0.0611946931,	2.7500000000
6491,	-2.9342539207,	0.1033019264,	2.5000000000
6492,	-2.9381424161,	0.1197786019,	2.2500000000
6493,	-2.9392927564,	0.1246529249,	2.0000000000
6494,	-2.9381424161,	0.1197786019,	1.7500000000
6495,	-2.9342539207,	0.1033019264,	1.5000000000
6496,	-2.9243166136,	0.0611946931,	1.2500000000
6497,	-2.9163237311,	0.0273265468,	2.7500000000
6498,	-2.9163237311,	0.0273265468,	2.5000000000
6499,	-2.9163237311,	0.0273265468,	2.2500000000
6500,	-2.9163237311,	0.0273265468,	2.0000000000
6501,	-2.9163237311,	0.0273265468,	1.7500000000
6502,	-2.9163237311,	0.0273265468,	1.5000000000
6503,	-2.9163237311,	0.0273265468,	1.2500000000
6504,	-2.9083308486,	-0.0065415994,	2.7500000000
6505,	-2.8983935416,	-0.0486488328,	2.5000000000
6506,	-2.8945050461,	-0.0651255082,	2.2500000000
6507,	-2.8933547059,	-0.0699998313,	2.0000000000
6508,	-2.8945050461,	-0.0651255082,	1.7500000000
6509,	-2.8983935416,	-0.0486488328,	1.5000000000
6510,	-2.9083308486,	-0.0065415994,	1.2500000000
6511,	-2.7473493462,	0.1009293756,	2.7500000000
6512,	-2.7555656237,	0.1434059804,	2.5000000000
6513,	-2.7587806756,	0.1600271920,	2.2500000000
6514,	-2.7597317899,	0.1649442734,	2.0000000000
6515,	-2.7587806756,	0.1600271920,	1.7500000000
6516,	-2.7555656237,	0.1434059804,	1.5000000000
6517,	-2.7473493462,	0.1009293756,	1.2500000000
6518,	-2.7407407407,	0.0667641326,	2.7500000000
6519,	-2.7407407407,	0.0667641326,	2.5000000000
6520,	-2.7407407407,	0.0667641326,	2.2500000000
6521,	-2.7407407407,	0.0667641326,	2.0000000000
6522,	-2.7407407407,	0.0667641326,	1.7500000000
6523,	-2.7407407407,	0.0667641326,	1.5000000000
6524,	-2.7407407407,	0.0667641326,	1.2500000000
6525,	-2.7341321353,	0.0325988895,	2.7500000000
6526,	-2.7259158578,	-0.0098777153,	2.5000000000
6527,	-2.7227008059,	-0.0264989269,	2.2500000000
6528,	-2.7217496916,	-0.0314160083,	2.0000000000
6529,	-2.7227008059,	-0.0264989269,	1.7500000000
6530,	-2.7259158578,	-0.0098777153,	1.5000000000
6531,	-2.7341321353,	0.0325988895,	1.2500000000
6532,	-2.5448617734,	0.1345487010,	2.7500000000
6533,	-2.5503264167,	0.1774661432,	2.5000000000
6534,	-2.5524647465,	0.1942598556,	2.2500000000
6535,	-2.5530973323,	0.1992279683,	2.0000000000
6536,	-2.5524647465,	0.1942598556,	1.7500000000
6537,	-2.5503264167,	0.1774661432,	1.5000000000
6538,	-2.5448617734,	0.1345487010,	1.2500000000
6539,	-2.5404663923,	0.1000288788,	2.7500000000
6540,	-2.5404663923,	0.1000288788,	2.5000000000
6541,	-2.5404663923,	0.1000288788,	2.2500000000
6542,	-2.5404663923,	0.1000288788,	2.0000000000
6543,	-2.5404663923,	0.1000288788,	1.7500000000
6544,	-2.5404663923,	0.1000288788,	1.5000000000
6545,	-2.5404663923,	0.1000288788,	1.2500000000
6546,	-2.5360710112,	0.0655090566,	2.7500000000
6547,	-2.5306063680,	0.0225916144,	2.5000000000
6548,	-2.5284680381,	0.0057979019,	2.2500000000
6549,	-2.5278354524,	0.0008297893,	2.0000000000
6550,	-2.5284680381,	0.0057979019,	1.7500000000
6551,	-2.5306063680,	0.0225916144,	1.5000000000
6552,	-2.5360710112,	0.0655090566,	1.2500000000
6553,	-2.3010677143,	0.1577449458,	2.7500000000
6554,	-2.3035889824,	0.2009353658,	2.5000000000
6555,	-2.3045755616,	0.2178358952,	2.2500000000
6556,	-2.3048674229,	0.2228356077,	2.0000000000
6557,	-2.3045755616,	0.2178358952,	1.7500000000
6558,	-2.3035889824,	0.2009353658,	1.5000000000
6559,	-2.3010677143,	0.1577449458,	1.2500000000
6560,	-2.2990397805,	0.1230055592,	2.7500000000
6561,	-2.2990397805,	0.1230055592,	2.5000000000
6562,	-2.2990397805,	0.1230055592,	2.2500000000
6563,	-2.2990397805,	0.1230055592,	2.0000000000
6564,	-2.2990397805,	0.1230055592,	1.7500000000
6565,	-2.2990397805,	0.1230055592,	1.5000000000
6566,	-2.2990397805,	0.1230055592,	1.2500000000
6567,	-2.2970118468,	0.0882661725,	2.7500000000
6568,	-2.2944905786,	0.0450757525,	2.5000000000
6569,	-2.2935039995,	0.0281752232,	2.2500000000
6570,	-2.2932121381,	0.0231755107,	2.0000000000
6571,	-2.2935039995,	0.0281752232,	1.7500000000
6572,	-2.2944905786,	0.0450757525,	1.5000000000
6573,	-2.2970118468,	0.0882661725,	1.2500000000
6574,	-2.0000000000,	0.1663774746,	2.7500000000
6575,	-2.0000000000,	0.2096414223,	2.5000000000
6576,	-2.0000000000,	0.2265707233,	2.2500000000
6577,	-2.0000000000,	0.2315789474,	2.0000000000
6578,	-2.0000000000,	0.2265707233,	1.7500000000
6579,	-2.0000000000,	0.2096414223,	1.5000000000
6580,	-2.0000000000,	0.1663774746,	1.2500000000
6581,	-2.0000000000,	0.1315789474,	2.7500000000
6582,	-2.0000000000,	0.1315789474,	2.5000000000
6583,	-2.0000000000,	0.1315789474,	2.2500000000
6584,	-2.0000000000,	0.1315789474,	2.0000000000
6585,	-2.0000000000,	0.1315789474,	1.7500000000
6586,	-2.0000000000,	0.1315789474,	1.5000000000
6587,	-2.0000000000,	0.1315789474,	1.2500000000
6588,	-2.0000000000,	0.0967804201,	2.7500000000
6589,	-2.0000000000,	0.0535164724,	2.5000000000
6590,	-2.0000000000,	0.0365871714,	2.2500000000
6591,	-2.0000000000,	0.0315789474,	2.0000000000
6592,	-2.0000000000,	0.0365871714,	1.7500000000
6593,	-2.0000000000,	0.0535164724,	1.5000000000
6594,	-2.0000000000,	0.0967804201,	1.2500000000
6595,	-1.6989322857,	0.1577449458,	2.7500000000
6596,	-1.6964110176,	0.2009353658,	2.5000000000
6597,	-1.6954244384,	0.2178358952,	2.2500000000
6598,	-1.6951325771,	0.2228356077,	2.0000000000
6599,	-1.6954244384,	0.2178358952,	1.7500000000
6600,	-1.6964110176,	0.2009353658,	1.5000000000
6601,	-1.6989322857,	0.1577449458,	1.2500000000
6602,	-1.7009602195,	0.1230055592,	2.7500000000
6603,	-1.7009602195,	0.1230055592,	2.5000000000
6604,	-1.7009602195,	0.1230055592,	2.2500000000
6605,	-1.7009602195,	0.1230055592,	2.0000000000
6606,	-1.7009602195,	0.1230055592,	1.7500000000
6607,	-1.7009602195,	0.1230055592,	1.5000000000
6608,	-1.7009602195,	0.1230055592,	1.2500000000
6609,	-1.7029881532,	0.0882661725,	2.7500000000
6610,	-1.7055094214,	0.0450757525,	2.5000000000
6611,	-1.7064960005,	0.0281752232,	2.2500000000
6612,	-1.7067878619,	0.0231755107,	2.0000000000
6613,	-1.7064960005,	0.0281752232,	1.7500000000
6614,	-1.7055094214,	0.0450757525,	1.5000000000
6615,	-1.7029881532,	0.0882661725,	1.2500000000
6616,	-1.4551382266,	0.1345487010,	2.7500000000
6617,	-1.4496735833,	0.1774661432,	2.5000000000
6618,	-1.4475352535,	0.1942598556,	2.2500000000
6619,	-1.4469026677,	0.1992279683,	2.0000000000
6620,	-1.4475352535,	0.1942598556,	1.7500000000
6621,	-1.4496735833,	0.1774661432,	1.5000000000
6622,	-1.4551382266,	0.1345487010,	1.2500000000
6623,	-1.4595336077,	0.1000288788,	2.7500000000
6624,	-1.4595336077,	0.1000288788,	2.5000000000
6625,	-1.4595336077,	0.1000288788,	2.2500000000
6626,	-1.4595336077,	0.1000288788,	2.0000000000
6627,	-1.4595336077,	0.1000288788,	1.7500000000
6628,	-1.4595336077,	0.1000288788,	1.5000000000
6629,	-1.4595336077,	0.1000288788,	1.2500000000
6630,	-1.4639289888,	0.0655090566,	2.7500000000
6631,	-1.4693936320,	0.0225916144,	2.5000000000
6632,	-1.4715319619,	0.0057979019,	2.2500000000
6633,	-1.4721645476,	0.0008297893,	2.0000000000
6634,	-1.4715319619,	0.0057979019,	1.7500000000
6635,	-1.4693936320,	0.0225916144,	1.5000000000
6636,	-1.4639289888,	0.0655090566,	1.2500000000
6637,	-1.2526506538,	0.1009293756,	2.7500000000
6638,	-1.2444343763,	0.1434059804,	2.5000000000
6639,	-1.2412193244,	0.1600271920,	2.2500000000
6640,	-1.2402682101,	0.1649442734,	2.0000000000
6641,	-1.2412193244,	0.1600271920,	1.7500000000
6642,	-1.2444343763,	0.1434059804,	1.5000000000
6643,	-1.2526506538,	0.1009293756,	1.2500000000
6644,	-1.2592592593,	0.0667641326,	2.7500000000
6645,	-1.2592592593,	0.0667641326,	2.5000000000
6646,	-1.2592592593,	0.0667641326,	2.2500000000
6647,	-1.2592592593,	0.0667641326,	2.0000000000
6648,	-1.2592592593,	0.0667641326,	1.7500000000
6649,	-1.2592592593,	0.0667641326,	1.5000000000
6650,	-1.2592592593,	0.0667641326,	1.2500000000
6651,	-1.2658678647,	0.0325988895,	2.7500000000
6652,	-1.2740841422,	-0.0098777153,	2.5000000000
6653,	-1.2772991941,	-0.0264989269,	2.2500000000
6654,	-1.2782503084,	-0.0314160083,	2.0000000000
6655,	-1.2772991941,	-0.0264989269,	1.7500000000
6656,	-1.2740841422,	-0.0098777153,	1.5000000000
6657,	-1.2658678647,	0.0325988895,	1.2500000000
6658,	-1.0756833864,	0.0611946931,	2.7500000000
6659,	-1.0657460793,	0.1033019264,	2.5000000000
6660,	-1.0618575839,	0.1197786019,	2.2500000000
6661,	-1.0607072436,	0.1246529249,	2.0000000000
6662,	-1.0618575839,	0.1197786019,	1.7500000000
6663,	-1.0657460793,	0.1033019264,	1.5000000000
6664,	-1.0756833864,	0.0611946931,	1.2500000000
6665,	-1.0836762689,	0.0273265468,	2.7500000000
6666,	-1.0836762689,	0.0273265468,	2.5000000000
6667,	-1.0836762689,	0.0273265468,	2.2500000000
6668,	-1.0836762689,	0.0273265468,	2.0000000000
6669,	-1.0836762689,	0.0273265468,	1.7500000000
6670,	-1.0836762689,	0.0273265468,	1.5000000000
6671,	-1.0836762689,	0.0273265468,	1.2500000000
6672,	-1.0916691514,	-0.0065415994,	2.7500000000
6673,	-1.1016064584,	-0.0486488328,	2.5000000000
6674,	-1.1054949539,	-0.0651255082,	2.2500000000
6675,	-1.1066452941,	-0.0699998313,	2.0000000000
6676,	-1.1054949539,	-0.0651255082,	1.7500000000
6677,	-1.1016064584,	-0.0486488328,	1.5000000000
6678,	-1.0916691514,	-0.0065415994,	1.2500000000
6679,	-0.9083308486,	0.0196994941,	2.7500000000
6680,	-0.8983935416,	0.0618067275,	2.5000000000
6681,	-0.8945050461,	0.0782834030,	2.2500000000
6682,	-0.8933547059,	0.0831577260,	2.0000000000
6683,	-0.8945050461,	0.0782834030,	1.7500000000
6684,	-0.8983935416,	0.0618067275,	1.5000000000
6685,	-0.9083308486,	0.0196994941,	1.2500000000
6686,	-0.9163237311,	-0.0141686521,	2.7500000000
6687,	-0.9163237311,	-0.0141686521,	2.5000000000
6688,	-0.9163237311,	-0.0141686521,	2.2500000000
6689,	-0.9163237311,	-0.0141686521,	2.0000000000
6690,	-0.9163237311,	-0.0141686521,	1.7500000000
6691,	-0.9163237311,	-0.0141686521,	1.5000000000
6692,	-0.9163237311,	-0.0141686521,	1.2500000000
6693,	-0.9243166136,	-0.0480367983,	2.7500000000
6694,	-0.9342539207,	-0.0901440317,	2.5000000000
6695,	-0.9381424161,	-0.1066207071,	2.2500000000
6696,	-0.9392927564,	-0.1114950302,	2.0000000000
6697,	-0.9381424161,	-0.1066207071,	1.7500000000
6698,	-0.9342539207,	-0.0901440317,	1.5000000000
6699,	-0.9243166136,	-0.0480367983,	1.2500000000
6700,	-0.7341321353,	-0.0194409947,	2.7500000000
6701,	-0.7259158578,	0.0230356101,	2.5000000000
6702,	-0.7227008059,	0.0396568216,	2.2500000000
6703,	-0.7217496916,	0.0445739030,	2.0000000000
6704,	-0.7227008059,	0.0396568216,	1.7500000000
6705,	-0.7259158578,	0.0230356101,	1.5000000000
6706,	-0.7341321353,	-0.0194409947,	1.2500000000
6707,	-0.7407407407,	-0.0536062378,	2.7500000000
6708,	-0.7407407407,	-0.0536062378,	2.5000000000
6709,	-0.7407407407,	-0.0536062378,	2.2500000000
6710,	-0.7407407407,	-0.0536062378,	2.0000000000
6711,	-0.7407407407,	-0.0536062378,	1.7500000000
6712,	-0.7407407407,	-0.0536062378,	1.5000000000
6713,	-0.7407407407,	-0.0536062378,	1.2500000000
6714,	-0.7473493462,	-0.0877714809,	2.7500000000
6715,	-0.7555656237,	-0.1302480857,	2.5000000000
6716,	-0.7587806756,	-0.1468692972,	2.2500000000
6717,	-0.7597317899,	-0.1517863786,	2.0000000000
6718,	-0.7587806756,	-0.1468692972,	1.7500000000
6719,	-0.7555656237,	-0.1302480857,	1.5000000000
6720,	-0.7473493462,	-0.0877714809,	1.2500000000
6721,	-0.5360710112,	-0.0523511618,	2.7500000000
6722,	-0.5306063680,	-0.0094337196,	2.5000000000
6723,	-0.5284680381,	0.0073599928,	2.2500000000
6724,	-0.5278354524,	0.0123281054,	2.0000000000
6725,	-0.5284680381,	0.0073599928,	1.7500000000
6726,	-0.5306063680,	-0.0094337196,	1.5000000000
6727,	-0.5360710112,	-0.0523511618,	1.2500000000
6728,	-0.5404663923,	-0.0868709840,	2.7500000000
6729,	-0.5404663923,	-0.0868709840,	2.5000000000
6730,	-0.5404663923,	-0.0868709840,	2.2500000000
6731,	-0.5404663923,	-0.0868709840,	2.0000000000
6732,	-0.5404663923,	-0.0868709840,	1.7500000000
6733,	-0.5404663923,	-0.0868709840,	1.5000000000
6734,	-0.5404663923,	-0.0868709840,	1.2500000000
6735,	-0.5448617734,	-0.1213908062,	2.7500000000
6736,	-0.5503264167,	-0.1643082485,	2.5000000000
6737,	-0.5524647465,	-0.1811019609,	2.2500000000
6738,	-0.5530973323,	-0.1860700735,	2.0000000000
6739,	-0.5524647465,	-0.1811019609,	1.7500000000
6740,	-0.5503264167,	-0.1643082485,	1.5000000000
6741,	-0.5448617734,	-0.1213908062,	1.2500000000
6742,	-0.2970118468,	-0.0751082778,	2.7500000000
6743,	-0.2944905786,	-0.0319178578,	2.5000000000
6744,	-0.2935039995,	-0.0150173284,	2.2500000000
6745,	-0.2932121381,	-0.0100176159,	2.0000000000
6746,	-0.2935039995,	-0.0150173284,	1.7500000000
6747,	-0.2944905786,	-0.0319178578,	1.5000000000
6748,	-0.2970118468,	-0.0751082778,	1.2500000000
6749,	-0.2990397805,	-0.1098476644,	2.7500000000
6750,	-0.2990397805,	-0.1098476644,	2.5000000000
6751,	-0.2990397805,	-0.1098476644,	2.2500000000
6752,	-0.2990397805,	-0.1098476644,	2.0000000000
6753,	-0.2990397805,	-0.1098476644,	1.7500000000
6754,	-0.2990397805,	-0.1098476644,	1.5000000000
6755,	-0.2990397805,	-0.1098476644,	1.2500000000
6756,	-0.3010677143,	-0.1445870511,	2.7500000000
6757,	-0.3035889824,	-0.1877774711,	2.5000000000
6758,	-0.3045755616,	-0.2046780004,	2.2500000000
6759,	-0.3048674229,	-0.2096777129,	2.0000000000
6760,	-0.3045755616,	-0.2046780004,	1.7500000000
6761,	-0.3035889824,	-0.1877774711,	1.5000000000
6762,	-0.3010677143,	-0.1445870511,	1.2500000000
6763,	-0.0000000000,	-0.0836225254,	2.7500000000
6764,	-0.0000000000,	-0.0403585777,	2.5000000000
6765,	-0.0000000000,	-0.0234292767,	2.2500000000
6766,	-0.0000000000,	-0.0184210526,	2.0000000000
6767,	-0.0000000000,	-0.0234292767,	1.7500000000
6768,	-0.0000000000,	-0.0403585777,	1.5000000000
6769,	-0.0000000000,	-0.0836225254,	1.2500000000
6770,	-0.0000000000,	-0.1184210526,	2.7500000000
6771,	-0.0000000000,	-0.1184210526,	2.5000000000
6772,	-0.0000000000,	-0.1184210526,	2.2500000000
6773,	-0.0000000000,	-0.1184210526,	2.0000000000
6774,	-0.0000000000,	-0.1184210526,	1.7500000000
6775,	-0.0000000000,	-0.1184210526,	1.5000000000
6776,	-0.0000000000,	-0.1184210526,	1.2500000000
6777,	-0.0000000000,	-0.1532195799,	2.7500000000
6778,	-0.0000000000,	-0.1964835276,	2.5000000000
6779,	-0.0000000000,	-0.2134128286,	2.2500000000
6780,	-0.0000000000,	-0.2184210526,	2.0000000000
6781,	-0.0000000000,	-0.2134128286,	1.7500000000
6782,	-0.0000000000,	-0.1964835276,	1.5000000000
6783,	-0.0000000000,	-0.1532195799,	1.2500000000
6784,	-0.0000000000,	-0.0836225254,	2.7500000000
6785,	-0.0000000000,	-0.0403585777,	2.5000000000
6786,	-0.0000000000,	-0.0234292767,	2.2500000000
6787,	-0.0000000000,	-0.0184210526,	2.0000000000
6788,	-0.0000000000,	-0.0234292767,	1.7500000000
6789,	-0.0000000000,	-0.0403585777,	1.5000000000
6790,	-0.0000000000,	-0.0836225254,	1.2500000000
6791,	-0.0000000000,	-0.1184210526,	2.7500000000
6792,	-0.0000000000,	-0.1184210526,	2.5000000000
6793,	-0.0000000000,	-0.1184210526,	2.2500000000
6794,	-0.0000000000,	-0.1184210526,	2.0000000000
6795,	-0.0000000000,	-0.1184210526,	1.7500000000
6796,	-0.0000000000,	-0.1184210526,	1.5000000000
6797,	-0.0000000000,	-0.1184210526,	1.2500000000
6798,	-0.0000000000,	-0.1532195799,	2.7500000000
6799,	-0.0000000000,	-0.1964835276,	2.5000000000
6800,	-0.0000000000,	-0.2134128286,	2.2500000000
6801,	-0.0000000000,	-0.2184210526,	2.0000000000
6802,	-0.0000000000,	-0.2134128286,	1.7500000000
6803,	-0.0000000000,	-0.1964835276,	1.5000000000
6804,	-0.0000000000,	-0.1532195799,	1.2500000000
6805,	0.2970118468,	-0.0751082778,	2.7500000000
6806,	0.2944905786,	-0.0319178578,	2.5000000000
6807,	0.2935039995,	-0.0150173284,	2.2500000000
6808,	0.2932121381,	-0.0100176159,	2.0000000000
6809,	0.2935039995,	-0.0150173284,	1.7500000000
6810,	0.2944905786,	-0.0319178578,	1.5000000000
6811,	0.2970118468,	-0.0751082778,	1.2500000000
6812,	0.2990397805,	-0.1098476644,	2.7500000000
6813,	0.2990397805,	-0.1098476644,	2.5000000000
6814,	0.2990397805,	-0.1098476644,	2.2500000000
6815,	0.2990397805,	-0.1098476644,	2.0000000000
6816,	0.2990397805,	-0.1098476644,	1.7500000000
6817,	0.2990397805,	-0.1098476644,	1.5000000000
6818,	0.2990397805,	-0.1098476644,	1.2500000000
6819,	0.3010677143,	-0.1445870511,	2.7500000000
6820,	0.3035889824,	-0.1877774711,	2.5000000000
6821,	0.3045755616,	-0.2046780004,	2.2500000000
6822,	0.3048674229,	-0.2096777129,	2.0000000000
6823,	0.3045755616,	-0.2046780004,	1.7500000000
6824,	0.3035889824,	-0.1877774711,	1.5000000000
6825,	0.3010677143,	-0.1445870511,	1.2500000000
6826,	0.5360710112,	-0.0523511618,	2.7500000000
6827,	0.5306063680,	-0.0094337196,	2.5000000000
6828,	0.5284680381,	0.0073599928,	2.2500000000
6829,	0.5278354524,	0.0123281054,	2.0000000000
6830,	0.5284680381,	0.0073599928,	1.7500000000
6831,	0.5306063680,	-0.0094337196,	1.5000000000
6832,	0.5360710112,	-0.0523511618,	1.2500000000
6833,	0.5404663923,	-0.0868709840,	2.7500000000
6834,	0.5404663923,	-0.0868709840,	2.5000000000
6835,	0.5404663923,	-0.0868709840,	2.2500000000
6836,	0.5404663923,	-0.0868709840,	2.0000000000
6837,	0.5404663923,	-0.0868709840,	1.7500000000
6838,	0.5404663923,	-0.0868709840,	1.5000000000
6839,	0.5404663923,	-0.0868709840,	1.2500000000
6840,	0.5448617734,	-0.1213908062,	2.7500000000
6841,	0.5503264167,	-0.1643082485,	2.5000000000
6842,	0.5524647465,	-0.1811019609,	2.2500000000
6843,	0.5530973323,	-0.1860700735,	2.0000000000
6844,	0.5524647465,	-0.1811019609,	1.7500000000
6845,	0.5503264167,	-0.1643082485,	1.5000000000
6846,	0.5448617734,	-0.1213908062,	1.2500000000
6847,	0.7341321353,	-0.0194409947,	2.7500000000
6848,	0.7259158578,	0.0230356101,	2.5000000000
6849,	0.7227008059,	0.0396568216,	2.2500000000
6850,	0.7217496916,	0.0445739030,	2.0000000000
6851,	0.7227008059,	0.0396568216,	1.7500000000
6852,	0.7259158578,	0.0230356101,	1.5000000000
6853,	0.7341321353,	-0.0194409947,	1.2500000000
6854,	0.7407407407,	-0.0536062378,	2.7500000000
6855,	0.7407407407,	-0.0536062378,	2.5000000000
6856,	0.7407407407,	-0.0536062378,	2.2500000000
6857,	0.7407407407,	-0.0536062378,	2.0000000000
6858,	0.7407407407,	-0.0536062378,	1.7500000000
6859,	0.7407407407,	-0.0536062378,	1.5000000000
6860,	0.7407407407,	-0.0536062378,	1.2500000000
6861,	0.7473493462,	-0.0877714809,	2.7500000000
6862,	0.7555656237,	-0.1302480857,	2.5000000000
6863,	0.7587806756,	-0.1468692972,	2.2500000000
6864,	0.7597317899,	-0.1517863786,	2.0000000000
6865,	0.7587806756,	-0.1468692972,	1.7500000000
6866,	0.7555656237,	-0.1302480857,	1.5000000000
6867,	0.7473493462,	-0.0877714809,	1.2500000000
6868,	0.9083308486,	0.0196994941,	2.7500000000
6869,	0.8983935416,	0.0618067275,	2.5000000000
6870,	0.8945050461,	0.0782834030,	2.2500000000
6871,	0.8933547059,	0.0831577260,	2.0000000000
6872,	0.8945050461,	0.0782834030,	1.7500000000
6873,	0.8983935416,	0.0618067275,	1.5000000000
6874,	0.9083308486,	0.0196994941,	1.2500000000
6875,	0.9163237311,	-0.0141686521,	2.7500000000
6876,	0.9163237311,	-0.0141686521,	2.5000000000
6877,	0.9163237311,	-0.0141686521,	2.2500000000
6878,	0.9163237311,	-0.0141686521,	2.0000000000
6879,	0.9163237311,	-0.0141686521,	1.7500000000
6880,	0.9163237311,	-0.0141686521,	1.5000000000
6881,	0.9163237311,	-0.0141686521,	1.2500000000
6882,	0.9243166136,	-0.0480367983,	2.7500000000
6883,	0.9342539207,	-0.0901440317,	2.5000000000
6884,	0.9381424161,	-0.1066207071,	2.2500000000
6885,	0.9392927564,	-0.1114950302,	2.0000000000
6886,	0.9381424161,	-0.1066207071,	1.7500000000
6887,	0.9342539207,	-0.0901440317,	1.5000000000
6888,	0.9243166136,	-0.0480367983,	1.2500000000
6889,	1.0756833864,	0.0611946931,	2.7500000000
6890,	1.0657460793,	0.1033019264,	2.5000000000
6891,	1.0618575839,	0.1197786019,	2.2500000000
6892,	1.0607072436,	0.1246529249,	2.0000000000
6893,	1.0618575839,	0.1197786019,	1.7500000000
6894,	1.0657460793,	0.1033019264,	1.5000000000
6895,	1.0756833864,	0.0611946931,	1.2500000000
6896,	1.0836762689,	0.0273265468,	2.7500000000
6897,	1.0836762689,	0.0273265468,	2.5000000000
6898,	1.0836762689,	0.0273265468,	2.2500000000
6899,	1.0836762689,	0.0273265468,	2.0000000000
6900,	1.0836762689,	0.0273265468,	1.7500000000
6901,	1.0836762689,	0.0273265468,	1.5000000000
6902,	1.0836762689,	0.0273265468,	1.2500000000
6903,	1.0916691514,	-0.0065415994,	2.7500000000
6904,	1.1016064584,	-0.0486488328,	2.5000000000
6905,	1.1054949539,	-0.0651255082,	2.2500000000
6906,	1.1066452941,	-0.0699998313,	2.0000000000
6907,	1.1054949539,	-0.0651255082,	1.7500000000
6908,	1.1016064584,	-0.0486488328,	1.5000000000
6909,	1.0916691514,	-0.0065415994,	1.2500000000
6910,	1.2526506538,	0.1009293756,	2.7500000000
6911,	1.2444343763,	0.1434059804,	2.5000000000
6912,	1.2412193244,	0.1600271920,	2.2500000000
6913,	1.2402682101,	0.1649442734,	2.0000000000
6914,	1.2412193244,	0.1600271920,	1.7500000000
6915,	1.2444343763,	0.1434059804,	1.5000000000
6916,	1.2526506538,	0.1009293756,	1.2500000000
6917,	1.2592592593,	0.0667641326,	2.7500000000
6918,	1.2592592593,	0.0667641326,	2.5000000000
6919,	1.2592592593,	0.0667641326,	2.2500000000
6920,	1.2592592593,	0.0667641326,	2.0000000000
6921,	1.2592592593,	0.0667641326,	1.7500000000
6922,	1.2592592593,	0.0667641326,	1.5000000000
6923,	1.2592592593,	0.0667641326,	1.2500000000
6924,	1.2658678647,	0.0325988895,	2.7500000000
6925,	1.2740841422,	-0.0098777153,	2.5000000000
6926,	1.2772991941,	-0.0264989269,	2.2500000000
6927,	1.2782503084,	-0.0314160083,	2.0000000000
6928,	1.2772991941,	-0.0264989269,	1.7500000000
6929,	1.2740841422,	-0.0098777153,	1.5000000000
6930,	1.2658678647,	0.0325988895,	1.2500000000
6931,	1.4551382266,	0.1345487010,	2.7500000000
6932,	1.4496735833,	0.1774661432,	2.5000000000
6933,	1.4475352535,	0.1942598556,	2.2500000000
6934,	1.4469026677,	0.1992279683,	2.0000000000
6935,	1.4475352535,	0.1942598556,	1.7500000000
6936,	1.4496735833,	0.1774661432,	1.5000000000
6937,	1.4551382266,	0.1345487010,	1.2500000000
6938,	1.4595336077,	0.1000288788,	2.7500000000
6939,	1.4595336077,	0.1000288788,	2.5000000000
6940,	1.4595336077,	0.1000288788,	2.2500000000
6941,	1.4595336077,	0.1000288788,	2.0000000000
6942,	1.4595336077,	0.1000288788,	1.7500000000
6943,	1.4595336077,	0.1000288788,	1.5000000000
6944,	1.4595336077,	0.1000288788,	1.2500000000
6945,	1.4639289888,	0.0655090566,	2.7500000000
6946,	1.4693936320,	0.0225916144,	2.5000000000
6947,	1.4715319619,	0.0057979019,	2.2500000000
6948,	1.4721645476,	0.0008297893,	2.0000000000
6949,	1.4715319619,	0.0057979019,	1.7500000000
6950,	1.4693936320,	0.0225916144,	1.5000000000
6951,	1.4639289888,	0.0655090566,	1.2500000000
6952,	1.6989322857,	0.1577449458,	2.7500000000
6953,	1.6964110176,	0.2009353658,	2.5000000000
6954,	1.6954244384,	0.2178358952,	2.2500000000
6955,	1.6951325771,	0.2228356077,	2.0000000000
6956,	1.6954244384,	0.2178358952,	1.7500000000
6957,	1.6964110176,	0.2009353658,	1.5000000000
6958,	1.6989322857,	0.1577449458,	1.2500000000
6959,	1.7009602195,	0.1230055592,	2.7500000000
6960,	1.7009602195,	0.1230055592,	2.5000000000
6961,	1.7009602195,	0.1230055592,	2.2500000000
6962,	1.7009602195,	0.1230055592,	2.0000000000
6963,	1.7009602195,	0.1230055592,	1.7500000000
6964,	1.7009602195,	0.1230055592,	1.5000000000
6965,	1.7009602195,	0.1230055592,	1.2500000000
6966,	1.7029881532,	0.0882661725,	2.7500000000
6967,	1.7055094214,	0.0450757525,	2.5000000000
6968,	1.7064960005,	0.0281752232,	2.2500000000
6969,	1.7067878619,	0.0231755107,	2.0000000000
6970,	1.7064960005,	0.0281752232,	1.7500000000
6971,	1.7055094214,	0.0450757525,	1.5000000000
6972,	1.7029881532,	0.0882661725,	1.2500000000
6973,	2.0000000000,	0.1663774746,	2.7500000000
6974,	2.0000000000,	0.2096414223,	2.5000000000
6975,	2.0000000000,	0.2265707233,	2.2500000000
6976,	2.0000000000,	0.2315789474,	2.0000000000
6977,	2.0000000000,	0.2265707233,	1.7500000000
6978,	2.0000000000,	0.2096414223,	1.5000000000
6979,	2.0000000000,	0.1663774746,	1.2500000000
6980,	2.0000000000,	0.1315789474,	2.7500000000
6981,	2.0000000000,	0.1315789474,	2.5000000000
6982,	2.0000000000,	0.1315789474,	2.2500000000
6983,	2.0000000000,	0.1315789474,	2.0000000000
6984,	2.0000000000,	0.1315789474,	1.7500000000
6985,	2.0000000000,	0.1315789474,	1.5000000000
6986,	2.0000000000,	0.1315789474,	1.2500000000
6987,	2.0000000000,	0.0967804201,	2.7500000000
6988,	2.0000000000,	0.0535164724,	2.5000000000
6989,	2.0000000000,	0.0365871714,	2.2500000000
6990,	2.0000000000,	0.0315789474,	2.0000000000
6991,	2.0000000000,	0.0365871714,	1.7500000000
6992,	2.0000000000,	0.0535164724,	1.5000000000
6993,	2.0000000000,	0.0967804201,	1.2500000000
6994,	2.3010677143,	0.1577449458,	2.7500000000
6995,	2.3035889824,	0.2009353658,	2.5000000000
6996,	2.3045755616,	0.2178358952,	2.2500000000
6997,	2.3048674229,	0.2228356077,	2.0000000000
6998,	2.3045755616,	0.2178358952,	1.7500000000
6999,	2.3035889824,	0.2009353658,	1.5000000000
7000,	2.3010677143,	0.1577449458,	1.2500000000
7001,	2.2990397805,	0.1230055592,	2.7500000000
7002,	2.2990397805,	0.1230055592,	2.5000000000
7003,	2.2990397805,	0.1230055592,	2.2500000000
7004,	2.2990397805,	0.1230055592,	2.0000000000
7005,	2.2990397805,	0.1230055592,	1.7500000000
7006,	2.2990397805,	0.1230055592,	1.5000000000
7007,	2.2990397805,	0.1230055592,	1.2500000000
7008,	2.2970118468,	0.0882661725,	2.7500000000
7009,	2.2944905786,	0.0450757525,	2.5000000000
7010,	2.2935039995,	0.0281752232,	2.2500000000
7011,	2.2932121381,	0.0231755107,	2.0000000000
7012,	2.2935039995,	0.0281752232,	1.7500000000
7013,	2.2944905786,	0.0450757525,	1.5000000000
7014,	2.2970118468,	0.0882661725,	1.2500000000
7015,	2.5448617734,	0.1345487010,	2.7500000000
7016,	2.5503264167,	0.1774661432,	2.5000000000
7017,	2.5524647465,	0.1942598556,	2.2500000000
7018,	2.5530973323,	0.1992279683,	2.0000000000
7019,	2.5524647465,	0.1942598556,	1.7500000000
7020,	2.5503264167,	0.1774661432,	1.5000000000
7021,	2.5448617734,	0.1345487010,	1.2500000000
7022,	2.5404663923,	0.1000288788,	2.7500000000
7023,	2.5404663923,	0.1000288788,	2.5000000000
7024,	2.5404663923,	0.1000288788,	2.2500000000
7025,	2.5404663923,	0.1000288788,	2.0000000000
7026,	2.5404663923,	0.1000288788,	1.7500000000
7027,	2.5404663923,	0.1000288788,	1.5000000000
7028,	2.5404663923,	0.1000288788,	1.2500000000
7029,	2.5360710112,	0.0655090566,	2.7500000000
7030,	2.5306063680,	0.0225916144,	2.5000000000
7031,	2.5284680381,	0.0057979019,	2.2500000000
7032,	2.5278354524,	0.0008297893,	2.0000000000
7033,	2.5284680381,	0.0057979019,	1.7500000000
7034,	2.5306063680,	0.0225916144,	1.5000000000
7035,	2.5360710112,	0.0655090566,	1.2500000000
7036,	2.7473493462,	0.1009293756,	2.7500000000
7037,	2.7555656237,	0.1434059804,	2.5000000000
7038,	2.7587806756,	0.1600271920,	2.2500000000
7039,	2.7597317899,	0.1649442734,	2.0000000000
7040,	2.7587806756,	0.1600271920,	1.7500000000
7041,	2.7555656237,	0.1434059804,	1.5000000000
7042,	2.7473493462,	0.1009293756,	1.2500000000
7043,	2.7407407407,	0.0667641326,	2.7500000000
7044,	2.7407407407,	0.0667641326,	2.5000000000
7045,	2.7407407407,	0.0667641326,	2.2500000000
7046,	2.7407407407,	0.0667641326,	2.0000000000
7047,	2.7407407407,	0.0667641326,	1.7500000000
7048,	2.7407407407,	0.0667641326,	1.5000000000
7049,	2.7407407407,	0.0667641326,	1.2500000000
7050,	2.7341321353,	0.0325988895,	2.7500000000
7051,	2.7259158578,	-0.0098777153,	2.5000000000
7052,	2.7227008059,	-0.0264989269,	2.2500000000
7053,	2.7217496916,	-0.0314160083,	2.0000000000
7054,	2.7227008059,	-0.0264989269,	1.7500000000
7055,	2.7259158578,	-0.0098777153,	1.5000000000
7056,	2.7341321353,	0.0325988895,	1.2500000000
7057,	2.9243166136,	0.0611946931,	2.7500000000
7058,	2.9342539207,	0.1033019264,	2.5000000000
7059,	2.9381424161,	0.1197786019,	2.2500000000
7060,	2.9392927564,	0.1246529249,	2.0000000000
7061,	2.9381424161,	0.1197786019,	1.7500000000
7062,	2.9342539207,	0.1033019264,	1.5000000000
7063,	2.9243166136,	0.0611946931,	1.2500000000
7064,	2.9163237311,	0.0273265468,	2.7500000000
7065,	2.9163237311,	0.0273265468,	2.5000000000
7066,	2.9163237311,	0.0273265468,	2.2500000000
7067,	2.9163237311,	0.0273265468,	2.0000000000
7068,	2.9163237311,	0.0273265468,	1.7500000000
7069,	2.9163237311,	0.0273265468,	1.5000000000
7070,	2.9163237311,	0.0273265468,	1.2500000000
7071,	2.9083308486,	-0.0065415994,	2.7500000000
7072,	2.8983935416,	-0.0486488328,	2.5000000000
7073,	2.8945050461,	-0.0651255082,	2.2500000000
7074,	2.8933547059,	-0.0699998313,	2.0000000000
7075,	2.8945050461,	-0.0651255082,	1.7500000000
7076,	2.8983935416,	-0.0486488328,	1.5000000000
7077,	2.9083308486,	-0.0065415994,	1.2500000000
7078,	3.0916691514,	0.0196994941,	2.7500000000
7079,	3.1016064584,	0.0618067275,	2.5000000000
7080,	3.1054949539,	0.0782834030,	2.2500000000
7081,	3.1066452941,	0.0831577260,	2.0000000000
7082,	3.1054949539,	0.0782834030,	1.7500000000
7083,	3.1016064584,	0.0618067275,	1.5000000000
7084,	3.0916691514,	0.0196994941,	1.2500000000
7085,	3.0836762689,	-0.0141686521,	2.7500000000
7086,	3.0836762689,	-0.0141686521,	2.5000000000
7087,	3.0836762689,	-0.0141686521,	2.2500000000
7088,	3.0836762689,	-0.0141686521,	2.0000000000
7089,	3.0836762689,	-0.0141686521,	1.7500000000
7090,	3.0836762689,	-0.0141686521,	1.5000000000
7091,	3.0836762689,	-0.0141686521,	1.2500000000
7092,	3.0756833864,	-0.0480367983,	2.7500000000
7093,	3.0657460793,	-0.0901440317,	2.5000000000
7094,	3.0618575839,	-0.1066207071,	2.2500000000
7095,	3.0607072436,	-0.1114950302,	2.0000000000
7096,	3.0618575839,	-0.1066207071,	1.7500000000
7097,	3.0657460793,	-0.0901440317,	1.5000000000
7098,	3.0756833864,	-0.0480367983,	1.2500000000
7099,	3.2658678647,	-0.0194409947,	2.7500000000
7100,	3.2740841422,	0.0230356101,	2.5000000000
7101,	3.2772991941,	0.0396568216,	2.2500000000
7102,	3.2782503084,	0.0445739030,	2.0000000000
7103,	3.2772991941,	0.0396568216,	1.7500000000
7104,	3.2740841422,	0.0230356101,	1.5000000000
7105,	3.2658678647,	-0.0194409947,	1.2500000000
7106,	3.2592592593,	-0.0536062378,	2.7500000000
7107,	3.2592592593,	-0.0536062378,	2.5000000000
7108,	3.2592592593,	-0.0536062378,	2.2500000000
7109,	3.2592592593,	-0.0536062378,	2.0000000000
7110,	3.2592592593,	-0.0536062378,	1.7500000000
7111,	3.2592592593,	-0.0536062378,	1.5000000000
7112,	3.2592592593,	-0.0536062378,	1.2500000000
7113,	3.2526506538,	-0.0877714809,	2.7500000000
7114,	3.2444343763,	-0.1302480857,	2.5000000000
7115,	3.2412193244,	-0.1468692972,	2.2500000000
7116,	3.2402682101,	-0.1517863786,	2.0000000000
7117,	3.2412193244,	-0.1468692972,	1.7500000000
7118,	3.2444343763,	-0.1302480857,	1.5000000000
7119,	3.2526506538,	-0.0877714809,	1.2500000000
7120,	3.4639289888,	-0.0523511618,	2.7500000000
7121,	3.4693936320,	-0.0094337196,	2.5000000000
7122,	3.4715319619,	0.0073599928,	2.2500000000
7123,	3.4721645476,	0.0123281054,	2.0000000000
7124,	3.4715319619,	0.0073599928,	1.7500000000
7125,	3.4693936320,	-0.0094337196,	1.5000000000
7126,	3.4639289888,	-0.0523511618,	1.2500000000
7127,	3.4595336077,	-0.0868709840,	2.7500000000
7128,	3.4595336077,	-0.0868709840,	2.5000000000
7129,	3.4595336077,	-0.0868709840,	2.2500000000
7130,	3.4595336077,	-0.0868709840,	2.0000000000
7131,	3.4595336077,	-0.0868709840,	1.7500000000
7132,	3.4595336077,	-0.0868709840,	1.5000000000
7133,	3.4595336077,	-0.0868709840,	1.2500000000
7134,	3.4551382266,	-0.1213908062,	2.7500000000
7135,	3.4496735833,	-0.1643082485,	2.5000000000
7136,	3.4475352535,	-0.1811019609,	2.2500000000
7137,	3.4469026677,	-0.1860700735,	2.0000000000
7138,	3.4475352535,	-0.1811019609,	1.7500000000
7139,	3.4496735833,	-0.1643082485,	1.5000000000
7140,	3.4551382266,	-0.1213908062,	1.2500000000
7141,	3.7029881532,	-0.0751082778,	2.7500000000
7142,	3.7055094214,	-0.0319178578,	2.5000000000
7143,	3.7064960005,	-0.0150173284,	2.2500000000
7144,	3.7067878619,	-0.0100176159,	2.0000000000
7145,	3.7064960005,	-0.0150173284,	1.7500000000
7146,	3.7055094214,	-0.0319178578,	1.5000000000
7147,	3.7029881532,	-0.0751082778,	1.2500000000
7148,	3.7009602195,	-0.1098476644,	2.7500000000
7149,	3.7009602195,	-0.1098476644,	2.5000000000
7150,	3.7009602195,	-0.1098476644,	2.2500000000
7151,	3.7009602195,	-0.1098476644,	2.0000000000
7152,	3.7009602195,	-0.1098476644,	1.7500000000
7153,	3.7009602195,	-0.1098476644,	1.5000000000
7154,	3.7009602195,	-0.1098476644,	1.2500000000
7155,	3.6989322857,	-0.1445870511,	2.7500000000
7156,	3.6964110176,	-0.1877774711,	2.5000000000
7157,	3.6954244384,	-0.2046780004,	2.2500000000
7158,	3.6951325771,	-0.2096777129,	2.0000000000
7159,	3.6954244384,	-0.2046780004,	1.7500000000
7160,	3.6964110176,	-0.1877774711,	1.5000000000
7161,	3.6989322857,	-0.1445870511,	1.2500000000
7162,	4.0000000000,	-0.0836225254,	2.7500000000
7163,	4.0000000000,	-0.0403585777,	2.5000000000
7164,	4.0000000000,	-0.0234292767,	2.2500000000
7165,	4.0000000000,	-0.0184210526,	2.0000000000
7166,	4.0000000000,	-0.0234292767,	1.7500000000
7167,	4.0000000000,	-0.0403585777,	1.5000000000
7168,	4.0000000000,	-0.0836225254,	1.2500000000
7169,	4.0000000000,	-0.1184210526,	2.7500000000
7170,	4.0000000000,	-0.1184210526,	2.5000000000
7171,	4.0000000000,	-0.1184210526,	2.2500000000
7172,	4.0000000000,	-0.1184210526,	2.0000000000
7173,	4.0000000000,	-0.1184210526,	1.7500000000
7174,	4.0000000000,	-0.1184210526,	1.5000000000
7175,	4.0000000000,	-0.1184210526,	1.2500000000
7176,	4.0000000000,	-0.1532195799,	2.7500000000
7177,	4.0000000000,	-0.1964835276,	2.5000000000
7178,	4.0000000000,	-0.2134128286,	2.2500000000
7179,	4.0000000000,	-0.2184210526,	2.0000000000
7180,	4.0000000000,	-0.2134128286,	1.7500000000
7181,	4.0000000000,	-0.1964835276,	1.5000000000
7182,	4.0000000000,	-0.1532195799,	1.2500000000
7183,	-4.0000000000,	0.1532195799,	4.7500000000
7184,	-4.0000000000,	0.1964835276,	4.5000000000
7185,	-4.0000000000,	0.2134128286,	4.2500000000
7186,	-4.0000000000,	0.2184210526,	4.0000000000
7187,	-4.0000000000,	0.2134128286,	3.7500000000
7188,	-4.0000000000,	0.1964835276,	3.5000000000
7189,	-4.0000000000,	0.1532195799,	3.2500000000
7190,	-4.0000000000,	0.1184210526,	4.7500000000
7191,	-4.0000000000,	0.1184210526,	4.5000000000
7192,	-4.0000000000,	0.1184210526,	4.2500000000
7193,	-4.0000000000,	0.1184210526,	4.0000000000
7194,	-4.0000000000,	0.1184210526,	3.7500000000
7195,	-4.0000000000,	0.1184210526,	3.5000000000
7196,	-4.0000000000,	0.1184210526,	3.2500000000
7197,	-4.0000000000,	0.0836225254,	4.7500000000
7198,	-4.0000000000,	0.0403585777,	4.5000000000
7199,	-4.0000000000,	0.0234292767,	4.2500000000
7200,	-4.0000000000,	0.0184210526,	4.0000000000
7201,	-4.0000000000,	0.0234292767,	3.7500000000
7202,	-4.0000000000,	0.0403585777,	3.5000000000
7203,	-4.0000000000,	0.0836225254,	3.2500000000
7204,	-3.6989322857,	0.1445870511,	4.7500000000
7205,	-3.6964110176,	0.1877774711,	4.5000000000
7206,	-3.6954244384,	0.2046780004,	4.2500000000
7207,	-3.6951325771,	0.2096777129,	4.0000000000
7208,	-3.6954244384,	0.2046780004,	3.7500000000
7209,	-3.6964110176,	0.1877774711,	3.5000000000
7210,	-3.6989322857,	0.1445870511,	3.2500000000
7211,	-3.7009602195,	0.1098476644,	4.7500000000
7212,	-3.7009602195,	0.1098476644,	4.5000000000
7213,	-3.7009602195,	0.1098476644,	4.2500000000
7214,	-3.7009602195,	0.1098476644,	4.0000000000
7215,	-3.7009602195,	0.1098476644,	3.7500000000
7216,	-3.7009602195,	0.1098476644,	3.5000000000
7217,	-3.7009602195,	0.1098476644,	3.2500000000
7218,	-3.7029881532,	0.0751082778,	4.7500000000
7219,	-3.7055094214,	0.0319178578,	4.5000000000
7220,	-3.7064960005,	0.0150173284,	4.2500000000
7221,	-3.7067878619,	0.0100176159,	4.0000000000
7222,	-3.7064960005,	0.0150173284,	3.7500000000
7223,	-3.7055094214,	0.0319178578,	3.5000000000
7224,	-3.7029881532,	0.0751082778,	3.2500000000
7225,	-3.4551382266,	0.1213908062,	4.7500000000
7226,	-3.4496735833,	0.1643082485,	4.5000000000
7227,	-3.4475352535,	0.1811019609,	4.2500000000
7228,	-3.4469026677,	0.1860700735,	4.0000000000
7229,	-3.4475352535,	0.1811019609,	3.7500000000
7230,	-3.4496735833,	0.1643082485,	3.5000000000
7231,	-3.4551382266,	0.1213908062,	3.2500000000
7232,	-3.4595336077,	0.0868709840,	4.7500000000
7233,	-3.4595336077,	0.0868709840,	4.5000000000
7234,	-3.4595336077,	0.0868709840,	4.2500000000
7235,	-3.4595336077,	0.0868709840,	4.0000000000
7236,	-3.4595336077,	0.0868709840,	3.7500000000
7237,	-3.4595336077,	0.0868709840,	3.5000000000
7238,	-3.4595336077,	0.0868709840,	3.2500000000
7239,	-3.4639289888,	0.0523511618,	4.7500000000
7240,	-3.4693936320,	0.0094337196,	4.5000000000
7241,	-3.4715319619,	-0.0073599928,	4.2500000000
7242,	-3.4721645476,	-0.0123281054,	4.0000000000
7243,	-3.4715319619,	-0.0073599928,	3.7500000000
7244,	-3.4693936320,	0.0094337196,	3.5000000000
7245,	-3.4639289888,	0.0523511618,	3.2500000000
7246,	-3.2526506538,	0.0877714809,	4.7500000000
7247,	-3.2444343763,	0.1302480857,	4.5000000000
7248,	-3.2412193244,	0.1468692972,	4.2500000000
7249,	-3.2402682101,	0.1517863786,	4.0000000000
7250,	-3.2412193244,	0.1468692972,	3.7500000000
7251,	-3.2444343763,	0.1302480857,	3.5000000000
7252,	-3.2526506538,	0.0877714809,	3.2500000000
7253,	-3.2592592593,	0.0536062378,	4.7500000000
7254,	-3.2592592593,	0.0536062378,	4.5000000000
7255,	-3.2592592593,	0.0536062378,	4.2500000000
7256,	-3.2592592593,	0.0536062378,	4.0000000000
7257,	-3.2592592593,	0.0536062378,	3.7500000000
7258,	-3.2592592593,	0.0536062378,	3.5000000000
7259,	-3.2592592593,	0.0536062378,	3.2500000000
7260,	-3.2658678647,	0.0194409947,	4.7500000000
7261,	-3.2740841422,	-0.0230356101,	4.5000000000
7262,	-3.2772991941,	-0.0396568216,	4.2500000000
7263,	-3.2782503084,	-0.0445739030,	4.0000000000
7264,	-3.2772991941,	-0.0396568216,	3.7500000000
7265,	-3.2740841422,	-0.0230356101,	3.5000000000
7266,	-3.2658678647,	0.0194409947,	3.2500000000
7267,	-3.0756833864,	0.0480367983,	4.7500000000
7268,	-3.0657460793,	0.0901440317,	4.5000000000
7269,	-3.0618575839,	0.1066207071,	4.2500000000
7270,	-3.0607072436,	0.1114950302,	4.0000000000
7271,	-3.0618575839,	0.1066207071,	3.7500000000
7272,	-3.0657460793,	0.0901440317,	3.5000000000
7273,	-3.0756833864,	0.0480367983,	3.2500000000
7274,	-3.0836762689,	0.0141686521,	4.7500000000
7275,	-3.0836762689,	0.0141686521,	4.5000000000
7276,	-3.0836762689,	0.0141686521,	4.2500000000
7277,	-3.0836762689,	0.0141686521,	4.0000000000
7278,	-3.0836762689,	0.0141686521,	3.7500000000
7279,	-3.0836762689,	0.0141686521,	3.5000000000
7280,	-3.0836762689,	0.0141686521,	3.2500000000
7281,	-3.0916691514,	-0.0196994941,	4.7500000000
7282,	-3.1016064584,	-0.0618067275,	4.5000000000
7283,	-3.1054949539,	-0.0782834030,	4.2500000000
7284,	-3.1066452941,	-0.0831577260,	4.0000000000
7285,	-3.1054949539,	-0.0782834030,	3.7500000000
7286,	-3.1016064584,	-0.0618067275,	3.5000000000
7287,	-3.0916691514,	-0.0196994941,	3.2500000000
7288,	-2.9083308486,	0.0065415994,	4.7500000000
7289,	-2.8983935416,	0.0486488328,	4.5000000000
7290,	-2.8945050461,	0.0651255082,	4.2500000000
7291,	-2.8933547059,	0.0699998313,	4.0000000000
7292,	-2.8945050461,	0.0651255082,	3.7500000000
7293,	-2.8983935416,	0.0486488328,	3.5000000000
7294,	-2.9083308486,	0.0065415994,	3.2500000000
7295,	-2.9163237311,	-0.0273265468,	4.7500000000
7296,	-2.9163237311,	-0.0273265468,	4.5000000000
7297,	-2.9163237311,	-0.0273265468,	4.2500000000
7298,	-2.9163237311,	-0.0273265468,	4.0000000000
7299,	-2.9163237311,	-0.0273265468,	3.7500000000
7300,	-2.9163237311,	-0.0273265468,	3.5000000000
7301,	-2.9163237311,	-0.0273265468,	3.2500000000
7302,	-2.9243166136,	-0.0611946931,	4.7500000000
7303,	-2.9342539207,	-0.1033019264,	4.5000000000
7304,	-2.9381424161,	-0.1197786019,	4.2500000000
7305,	-2.9392927564,	-0.1246529249,	4.0000000000
7306,	-2.9381424161,	-0.1197786019,	3.7500000000
7307,	-2.9342539207,	-0.1033019264,	3.5000000000
7308,	-2.9243166136,	-0.0611946931,	3.2500000000
7309,	-2.7341321353,	-0.0325988895,	4.7500000000
7310,	-2.7259158578,	0.0098777153,	4.5000000000
7311,	-2.7227008059,	0.0264989269,	4.2500000000
7312,	-2.7217496916,	0.0314160083,	4.0000000000
7313,	-2.7227008059,	0.0264989269,	3.7500000000
7314,	-2.7259158578,	0.0098777153,	3.5000000000
7315,	-2.7341321353,	-0.0325988895,	3.2500000000
7316,	-2.7407407407,	-0.0667641326,	4.7500000000
7317,	-2.7407407407,	-0.0667641326,	4.5000000000
7318,	-2.7407407407,	-0.0667641326,	4.2500000000
7319,	-2.7407407407,	-0.0667641326,	4.0000000000
7320,	-2.7407407407,	-0.0667641326,	3.7500000000
7321,	-2.7407407407,	-0.0667641326,	3.5000000000
7322,	-2.7407407407,	-0.0667641326,	3.2500000000
7323,	-2.7473493462,	-0.1009293756,	4.7500000000
7324,	-2.7555656237,	-0.1434059804,	4.5000000000
7325,	-2.7587806756,	-0.1600271920,	4.2500000000
7326,	-2.7597317899,	-0.1649442734,	4.0000000000
7327,	-2.7587806756,	-0.1600271920,	3.7500000000
7328,	-2.7555656237,	-0.1434059804,	3.5000000000
7329,	-2.7473493462,	-0.1009293756,	3.2500000000
7330,	-2.5360710112,	-0.0655090566,	4.7500000000
7331,	-2.5306063680,	-0.0225916144,	4.5000000000
7332,	-2.5284680381,	-0.0057979019,	4.2500000000
7333,	-2.5278354524,	-0.0008297893,	4.0000000000
7334,	-2.5284680381,	-0.0057979019,	3.7500000000
7335,	-2.5306063680,	-0.0225916144,	3.5000000000
7336,	-2.5360710112,	-0.0655090566,	3.2500000000
7337,	-2.5404663923,	-0.1000288788,	4.7500000000
7338,	-2.5404663923,	-0.1000288788,	4.5000000000
7339,	-2.5404663923,	-0.1000288788,	4.2500000000
7340,	-2.5404663923,	-0.1000288788,	4.0000000000
7341,	-2.5404663923,	-0.1000288788,	3.7500000000
7342,	-2.5404663923,	-0.1000288788,	3.5000000000
7343,	-2.5404663923,	-0.1000288788,	3.2500000000
7344,	-2.5448617734,	-0.1345487010,	4.7500000000
7345,	-2.5503264167,	-0.1774661432,	4.5000000000
7346,	-2.5524647465,	-0.1942598556,	4.2500000000
7347,	-2.5530973323,	-0.1992279683,	4.0000000000
7348,	-2.5524647465,	-0.1942598556,	3.7500000000
7349,	-2.5503264167,	-0.1774661432,	3.5000000000
7350,	-2.5448617734,	-0.1345487010,	3.2500000000
7351,	-2.2970118468,	-0.0882661725,	4.7500000000
7352,	-2.2944905786,	-0.0450757525,	4.5000000000
7353,	-2.2935039995,	-0.0281752232,	4.2500000000
7354,	-2.2932121381,	-0.0231755107,	4.0000000000
7355,	-2.2935039995,	-0.0281752232,	3.7500000000
7356,	-2.2944905786,	-0.0450757525,	3.5000000000
7357,	-2.2970118468,	-0.0882661725,	3.2500000000
7358,	-2.2990397805,	-0.1230055592,	4.7500000000
7359,	-2.2990397805,	-0.1230055592,	4.5000000000
7360,	-2.2990397805,	-0.1230055592,	4.2500000000
7361,	-2.2990397805,	-0.1230055592,	4.0000000000
7362,	-2.2990397805,	-0.1230055592,	3.7500000000
7363,	-2.2990397805,	-0.1230055592,	3.5000000000
7364,	-2.2990397805,	-0.1230055592,	3.2500000000
7365,	-2.3010677143,	-0.1577449458,	4.7500000000
7366,	-2.3035889824,	-0.2009353658,	4.5000000000
7367,	-2.3045755616,	-0.2178358952,	4.2500000000
7368,	-2.3048674229,	-0.2228356077,	4.0000000000
7369,	-2.3045755616,	-0.2178358952,	3.7500000000
7370,	-2.3035889824,	-0.2009353658,	3.5000000000
7371,	-2.3010677143,	-0.1577449458,	3.2500000000
7372,	-2.0000000000,	-0.0967804201,	4.7500000000
7373,	-2.0000000000,	-0.0535164724,	4.5000000000
7374,	-2.0000000000,	-0.0365871714,	4.2500000000
7375,	-2.0000000000,	-0.0315789474,	4.0000000000
7376,	-2.0000000000,	-0.0365871714,	3.7500000000
7377,	-2.0000000000,	-0.0535164724,	3.5000000000
7378,	-2.0000000000,	-0.0967804201,	3.2500000000
7379,	-2.0000000000,	-0.1315789474,	4.7500000000
7380,	-2.0000000000,	-0.1315789474,	4.5000000000
7381,	-2.0000000000,	-0.1315789474,	4.2500000000
7382,	-2.0000000000,	-0.1315789474,	4.0000000000
7383,	-2.0000000000,	-0.1315789474,	3.7500000000
7384,	-2.0000000000,	-0.1315789474,	3.5000000000
7385,	-2.0000000000,	-0.1315789474,	3.2500000000
7386,	-2.0000000000,	-0.1663774746,	4.7500000000
7387,	-2.0000000000,	-0.2096414223,	4.5000000000
7388,	-2.0000000000,	-0.2265707233,	4.2500000000
7389,	-2.0000000000,	-0.2315789474,	4.0000000000
7390,	-2.0000000000,	-0.2265707233,	3.7500000000
7391,	-2.0000000000,	-0.2096414223,	3.5000000000
7392,	-2.0000000000,	-0.1663774746,	3.2500000000
7393,	-1.7029881532,	-0.0882661725,	4.7500000000
7394,	-1.7055094214,	-0.0450757525,	4.5000000000
7395,	-1.7064960005,	-0.0281752232,	4.2500000000
7396,	-1.7067878619,	-0.0231755107,	4.0000000000
7397,	-1.7064960005,	-0.0281752232,	3.7500000000
7398,	-1.7055094214,	-0.0450757525,	3.5000000000
7399,	-1.7029881532,	-0.0882661725,	3.2500000000
7400,	-1.7009602195,	-0.1230055592,	4.7500000000
7401,	-1.7009602195,	-0.1230055592,	4.5000000000
7402,	-1.7009602195,	-0.1230055592,	4.2500000000
7403,	-1.7009602195,	-0.1230055592,	4.0000000000
7404,	-1.7009602195,	-0.1230055592,	3.7500000000
7405,	-1.7009602195,	-0.1230055592,	3.5000000000
7406,	-1.7009602195,	-0.1230055592,	3.2500000000
7407,	-1.6989322857,	-0.1577449458,	4.7500000000
7408,	-1.6964110176,	-0.2009353658,	4.5000000000
7409,	-1.6954244384,	-0.2178358952,	4.2500000000
7410,	-1.6951325771,	-0.2228356077,	4.0000000000
7411,	-1.6954244384,	-0.2178358952,	3.7500000000
7412,	-1.6964110176,	-0.2009353658,	3.5000000000
7413,	-1.6989322857,	-0.1577449458,	3.2500000000
7414,	-1.4639289888,	-0.0655090566,	4.7500000000
7415,	-1.4693936320,	-0.0225916144,	4.5000000000
7416,	-1.4715319619,	-0.0057979019,	4.2500000000
7417,	-1.4721645476,	-0.0008297893,	4.0000000000
7418,	-1.4715319619,	-0.0057979019,	3.7500000000
7419,	-1.4693936320,	-0.0225916144,	3.5000000000
7420,	-1.4639289888,	-0.0655090566,	3.2500000000
7421,	-1.4595336077,	-0.1000288788,	4.7500000000
7422,	-1.4595336077,	-0.1000288788,	4.5000000000
7423,	-1.4595336077,	-0.1000288788,	4.2500000000
7424,	-1.4595336077,	-0.1000288788,	4.0000000000
7425,	-1.4595336077,	-0.1000288788,	3.7500000000
7426,	-1.4595336077,	-0.1000288788,	3.5000000000
7427,	-1.4595336077,	-0.1000288788,	3.2500000000
7428,	-1.4551382266,	-0.1345487010,	4.7500000000
7429,	-1.4496735833,	-0.1774661432,	4.5000000000
7430,	-1.4475352535,	-0.1942598556,	4.2500000000
7431,	-1.4469026677,	-0.1992279683,	4.0000000000
7432,	-1.4475352535,	-0.1942598556,	3.7500000000
7433,	-1.4496735833,	-0.1774661432,	3.5000000000
7434,	-1.4551382266,	-0.1345487010,	3.2500000000
7435,	-1.2658678647,	-0.0325988895,	4.7500000000
7436,	-1.2740841422,	0.0098777153,	4.5000000000
7437,	-1.2772991941,	0.0264989269,	4.2500000000
7438,	-1.2782503084,	0.0314160083,	4.0000000000
7439,	-1.2772991941,	0.0264989269,	3.7500000000
7440,	-1.2740841422,	0.0098777153,	3.5000000000
7441,	-1.2658678647,	-0.0325988895,	3.2500000000
7442,	-1.2592592593,	-0.0667641326,	4.7500000000
7443,	-1.2592592593,	-0.0667641326,	4.5000000000
7444,	-1.2592592593,	-0.0667641326,	4.2500000000
7445,	-1.2592592593,	-0.0667641326,	4.0000000000
7446,	-1.2592592593,	-0.0667641326,	3.7500000000
7447,	-1.2592592593,	-0.0667641326,	3.5000000000
7448,	-1.2592592593,	-0.0667641326,	3.2500000000
7449,	-1.2526506538,	-0.1009293756,	4.7500000000
7450,	-1.2444343763,	-0.1434059804,	4.5000000000
7451,	-1.2412193244,	-0.1600271920,	4.2500000000
7452,	-1.2402682101,	-0.1649442734,	4.0000000000
7453,	-1.2412193244,	-0.1600271920,	3.7500000000
7454,	-1.2444343763,	-0.1434059804,	3.5000000000
7455,	-1.2526506538,	-0.1009293756,	3.2500000000
7456,	-1.0916691514,	0.0065415994,	4.7500000000
7457,	-1.1016064584,	0.0486488328,	4.5000000000
7458,	-1.1054949539,	0.0651255082,	4.2500000000
7459,	-1.1066452941,	0.0699998313,	4.0000000000
7460,	-1.1054949539,	0.0651255082,	3.7500000000
7461,	-1.1016064584,	0.0486488328,	3.5000000000
7462,	-1.0916691514,	0.0065415994,	3.2500000000
7463,	-1.0836762689,	-0.0273265468,	4.7500000000
7464,	-1.0836762689,	-0.0273265468,	4.5000000000
7465,	-1.0836762689,	-0.0273265468,	4.2500000000
7466,	-1.0836762689,	-0.0273265468,	4.0000000000
7467,	-1.0836762689,	-0.0273265468,	3.7500000000
7468,	-1.0836762689,	-0.0273265468,	3.5000000000
7469,	-1.0836762689,	-0.0273265468,	3.2500000000
7470,	-1.0756833864,	-0.0611946931,	4.7500000000
7471,	-1.0657460793,	-0.1033019264,	4.5000000000
7472,	-1.0618575839,	-0.1197786019,	4.2500000000
7473,	-1.0607072436,	-0.1246529249,	4.0000000000
7474,	-1.0618575839,	-0.1197786019,	3.7500000000
7475,	-1.0657460793,	-0.1033019264,	3.5000000000
7476,	-1.0756833864,	-0.0611946931,	3.2500000000
7477,	-0.9243166136,	0.0480367983,	4.7500000000
7478,	-0.9342539207,	0.0901440317,	4.5000000000
7479,	-0.9381424161,	0.1066207071,	4.2500000000
7480,	-0.9392927564,	0.1114950302,	4.0000000000
7481,	-0.9381424161,	0.1066207071,	3.7500000000
7482,	-0.9342539207,	0.0901440317,	3.5000000000
7483,	-0.9243166136,	0.0480367983,	3.2500000000
7484,	-0.9163237311,	0.0141686521,	4.7500000000
7485,	-0.9163237311,	0.0141686521,	4.5000000000
7486,	-0.9163237311,	0.0141686521,	4.2500000000
7487,	-0.9163237311,	0.0141686521,	4.0000000000
7488,	-0.9163237311,	0.0141686521,	3.7500000000
7489,	-0.9163237311,	0.0141686521,	3.5000000000
7490,	-0.9163237311,	0.0141686521,	3.2500000000
7491,	-0.9083308486,	-0.0196994941,	4.7500000000
7492,	-0.8983935416,	-0.0618067275,	4.5000000000
7493,	-0.8945050461,	-0.0782834030,	4.2500000000
7494,	-0.8933547059,	-0.0831577260,	4.0000000000
7495,	-0.8945050461,	-0.0782834030,	3.7500000000
7496,	-0.8983935416,	-0.0618067275,	3.5000000000
7497,	-0.9083308486,	-0.0196994941,	3.2500000000
7498,	-0.7473493462,	0.0877714809,	4.7500000000
7499,	-0.7555656237,	0.1302480857,	4.5000000000
7500,	-0.7587806756,	0.1468692972,	4.2500000000
7501,	-0.7597317899,	0.1517863786,	4.0000000000
7502,	-0.7587806756,	0.1468692972,	3.7500000000
7503,	-0.7555656237,	0.1302480857,	3.5000000000
7504,	-0.7473493462,	0.0877714809,	3.2500000000
7505,	-0.7407407407,	0.0536062378,	4.7500000000
7506,	-0.7407407407,	0.0536062378,	4.5000000000
7507,	-0.7407407407,	0.0536062378,	4.2500000000
7508,	-0.7407407407,	0.0536062378,	4.0000000000
7509,	-0.7407407407,	0.0536062378,	3.7500000000
7510,	-0.7407407407,	0.0536062378,	3.5000000000
7511,	-0.7407407407,	0.0536062378,	3.2500000000
7512,	-0.7341321353,	0.0194409947,	4.7500000000
7513,	-0.7259158578,	-0.0230356101,	4.5000000000
7514,	-0.7227008059,	-0.0396568216,	4.2500000000
7515,	-0.7217496916,	-0.0445739030,	4.0000000000
7516,	-0.7227008059,	-0.0396568216,	3.7500000000
7517,	-0.7259158578,	-0.0230356101,	3.5000000000
7518,	-0.7341321353,	0.0194409947,	3.2500000000
7519,	-0.5448617734,	0.1213908062,	4.7500000000
7520,	-0.5503264167,	0.1643082485,	4.5000000000
7521,	-0.5524647465,	0.1811019609,	4.2500000000
7522,	-0.5530973323,	0.1860700735,	4.0000000000
7523,	-0.5524647465,	0.1811019609,	3.7500000000
7524,	-0.5503264167,	0.1643082485,	3.5000000000
7525,	-0.5448617734,	0.1213908062,	3.2500000000
7526,	-0.5404663923,	0.0868709840,	4.7500000000
7527,	-0.5404663923,	0.0868709840,	4.5000000000
7528,	-0.5404663923,	0.0868709840,	4.2500000000
7529,	-0.5404663923,	0.0868709840,	4.0000000000
7530,	-0.5404663923,	0.0868709840,	3.7500000000
7531,	-0.5404663923,	0.0868709840,	3.5000000000
7532,	-0.5404663923,	0.0868709840,	3.2500000000
7533,	-0.5360710112,	0.0523511618,	4.7500000000
7534,	-0.5306063680,	0.0094337196,	4.5000000000
7535,	-0.5284680381,	-0.0073599928,	4.2500000000
7536,	-0.5278354524,	-0.0123281054,	4.0000000000
7537,	-0.5284680381,	-0.0073599928,	3.7500000000
7538,	-0.5306063680,	0.0094337196,	3.5000000000
7539,	-0.5360710112,	0.0523511618,	3.2500000000
7540,	-0.3010677143,	0.1445870511,	4.7500000000
7541,	-0.3035889824,	0.1877774711,	4.5000000000
7542,	-0.3045755616,	0.2046780004,	4.2500000000
7543,	-0.3048674229,	0.2096777129,	4.0000000000
7544,	-0.3045755616,	0.2046780004,	3.7500000000
7545,	-0.3035889824,	0.1877774711,	3.5000000000
7546,	-0.3010677143,	0.1445870511,	3.2500000000
7547,	-0.2990397805,	0.1098476644,	4.7500000000
7548,	-0.2990397805,	0.1098476644,	4.5000000000
7549,	-0.2990397805,	0.1098476644,	4.2500000000
7550,	-0.2990397805,	0.1098476644,	4.0000000000
7551,	-0.2990397805,	0.1098476644,	3.7500000000
7552,	-0.2990397805,	0.1098476644,	3.5000000000
7553,	-0.2990397805,	0.1098476644,	3.2500000000
7554,	-0.2970118468,	0.0751082778,	4.7500000000
7555,	-0.2944905786,	0.0319178578,	4.5000000000
7556,	-0.2935039995,	0.0150173284,	4.2500000000
7557,	-0.2932121381,	0.0100176159,	4.0000000000
7558,	-0.2935039995,	0.0150173284,	3.7500000000
7559,	-0.2944905786,	0.0319178578,	3.5000000000
7560,	-0.2970118468,	0.0751082778,	3.2500000000
7561,	-0.0000000000,	0.1532195799,	4.7500000000
7562,	-0.0000000000,	0.1964835276,	4.5000000000
7563,	-0.0000000000,	0.2134128286,	4.2500000000
7564,	-0.0000000000,	0.2184210526,	4.0000000000
7565,	-0.0000000000,	0.2134128286,	3.7500000000
7566,	-0.0000000000,	0.1964835276,	3.5000000000
7567,	-0.0000000000,	0.1532195799,	3.2500000000
7568,	-0.0000000000,	0.1184210526,	4.7500000000
7569,	-0.0000000000,	0.1184210526,	4.5000000000
7570,	-0.0000000000,	0.1184210526,	4.2500000000
7571,	-0.0000000000,	0.1184210526,	4.0000000000
7572,	-0.0000000000,	0.1184210526,	3.7500000000
7573,	-0.0000000000,	0.1184210526,	3.5000000000
7574,	-0.0000000000,	0.1184210526,	3.2500000000
7575,	-0.0000000000,	0.0836225254,	4.7500000000
7576,	-0.0000000000,	0.0403585777,	4.5000000000
7577,	-0.0000000000,	0.0234292767,	4.2500000000
7578,	-0.0000000000,	0.0184210526,	4.0000000000
7579,	-0.0000000000,	0.0234292767,	3.7500000000
7580,	-0.0000000000,	0.0403585777,	3.5000000000
7581,	-0.0000000000,	0.0836225254,	3.2500000000
7582,	-0.0000000000,	0.1532195799,	4.7500000000
7583,	-0.0000000000,	0.1964835276,	4.5000000000
7584,	-0.0000000000,	0.2134128286,	4.2500000000
7585,	-0.0000000000,	0.2184210526,	4.0000000000
7586,	-0.0000000000,	0.2134128286,	3.7500000000
7587,	-0.0000000000,	0.1964835276,	3.5000000000
7588,	-0.0000000000,	0.1532195799,	3.2500000000
7589,	-0.0000000000,	0.1184210526,	4.7500000000
7590,	-0.0000000000,	0.1184210526,	4.5000000000
7591,	-0.0000000000,	0.1184210526,	4.2500000000
7592,	-0.0000000000,	0.1184210526,	4.0000000000
7593,	-0.0000000000,	0.1184210526,	3.7500000000
7594,	-0.0000000000,	0.1184210526,	3.5000000000
7595,	-0.0000000000,	0.1184210526,	3.2500000000
7596,	-0.0000000000,	0.0836225254,	4.7500000000
7597,	-0.0000000000,	0.0403585777,	4.5000000000
7598,	-0.0000000000,	0.0234292767,	4.2500000000
7599,	-0.0000000000,	0.0184210526,	4.0000000000
7600,	-0.0000000000,	0.0234292767,	3.7500000000
7601,	-0.0000000000,	0.0403585777,	3.5000000000
7602,	-0.0000000000,	0.0836225254,	3.2500000000
7603,	0.3010677143,	0.1445870511,	4.7500000000
7604,	0.3035889824,	0.1877774711,	4.5000000000
7605,	0.3045755616,	0.2046780004,	4.2500000000
7606,	0.3048674229,	0.2096777129,	4.0000000000
7607,	0.3045755616,	0.2046780004,	3.7500000000
7608,	0.3035889824,	0.1877774711,	3.5000000000
7609,	0.3010677143,	0.1445870511,	3.2500000000
7610,	0.2990397805,	0.1098476644,	4.7500000000
7611,	0.2990397805,	0.1098476644,	4.5000000000
7612,	0.2990397805,	0.1098476644,	4.2500000000
7613,	0.2990397805,	0.1098476644,	4.0000000000
7614,	0.2990397805,	0.1098476644,	3.7500000000
7615,	0.2990397805,	0.1098476644,	3.5000000000
7616,	0.2990397805,	0.1098476644,	3.2500000000
7617,	0.2970118468,	0.0751082778,	4.7500000000
7618,	0.2944905786,	0.0319178578,	4.5000000000
7619,	0.2935039995,	0.0150173284,	4.2500000000
7620,	0.2932121381,	0.0100176159,	4.0000000000
7621,	0.2935039995,	0.0150173284,	3.7500000000
7622,	0.2944905786,	0.0319178578,	3.5000000000
7623,	0.2970118468,	0.0751082778,	3.2500000000
7624,	0.5448617734,	0.1213908062,	4.7500000000
7625,	0.5503264167,	0.1643082485,	4.5000000000
7626,	0.5524647465,	0.1811019609,	4.2500000000
7627,	0.5530973323,	0.1860700735,	4.0000000000
7628,	0.5524647465,	0.1811019609,	3.7500000000
7629,	0.5503264167,	0.1643082485,	3.5000000000
7630,	0.5448617734,	0.1213908062,	3.2500000000
7631,	0.5404663923,	0.0868709840,	4.7500000000
7632,	0.5404663923,	0.0868709840,	4.5000000000
7633,	0.5404663923,	0.0868709840,	4.2500000000
7634,	0.5404663923,	0.0868709840,	4.0000000000
7635,	0.5404663923,	0.0868709840,	3.7500000000
7636,	0.5404663923,	0.0868709840,	3.5000000000
7637,	0.5404663923,	0.0868709840,	3.2500000000
7638,	0.5360710112,	0.0523511618,	4.7500000000
7639,	0.5306063680,	0.0094337196,	4.5000000000
7640,	0.5284680381,	-0.0073599928,	4.2500000000
7641,	0.5278354524,	-0.0123281054,	4.0000000000
7642,	0.5284680381,	-0.0073599928,	3.7500000000
7643,	0.5306063680,	0.0094337196,	3.5000000000
7644,	0.5360710112,	0.0523511618,	3.2500000000
7645,	0.7473493462,	0.0877714809,	4.7500000000
7646,	0.7555656237,	0.1302480857,	4.5000000000
7647,	0.7587806756,	0.1468692972,	4.2500000000
7648,	0.7597317899,	0.1517863786,	4.0000000000
7649,	0.7587806756,	0.1468692972,	3.7500000000
7650,	0.7555656237,	0.1302480857,	3.5000000000
7651,	0.7473493462,	0.0877714809,	3.2500000000
7652,	0.7407407407,	0.0536062378,	4.7500000000
7653,	0.7407407407,	0.0536062378,	4.5000000000
7654,	0.7407407407,	0.0536062378,	4.2500000000
7655,	0.7407407407,	0.0536062378,	4.0000000000
7656,	0.7407407407,	0.0536062378,	3.7500000000
7657,	0.7407407407,	0.0536062378,	3.5000000000
7658,	0.7407407407,	0.0536062378,	3.2500000000
7659,	0.7341321353,	0.0194409947,	4.7500000000
7660,	0.7259158578,	-0.0230356101,	4.5000000000
7661,	0.7227008059,	-0.0396568216,	4.2500000000
7662,	0.7217496916,	-0.0445739030,	4.0000000000
7663,	0.7227008059,	-0.0396568216,	3.7500000000
7664,	0.7259158578,	-0.0230356101,	3.5000000000
7665,	0.7341321353,	0.0194409947,	3.2500000000
7666,	0.9243166136,	0.0480367983,	4.7500000000
7667,	0.9342539207,	0.0901440317,	4.5000000000
7668,	0.9381424161,	0.1066207071,	4.2500000000
7669,	0.9392927564,	0.1114950302,	4.0000000000
7670,	0.9381424161,	0.1066207071,	3.7500000000
7671,	0.9342539207,	0.0901440317,	3.5000000000
7672,	0.9243166136,	0.0480367983,	3.2500000000
7673,	0.9163237311,	0.0141686521,	4.7500000000
7674,	0.9163237311,	0.0141686521,	4.5000000000
7675,	0.9163237311,	0.0141686521,	4.2500000000
7676,	0.9163237311,	0.0141686521,	4.0000000000
7677,	0.9163237311,	0.0141686521,	3.7500000000
7678,	0.9163237311,	0.0141686521,	3.5000000000
7679,	0.9163237311,	0.0141686521,	3.2500000000
7680,	0.9083308486,	-0.0196994941,	4.7500000000
7681,	0.8983935416,	-0.0618067275,	4.5000000000
7682,	0.8945050461,	-0.0782834030,	4.2500000000
7683,	0.8933547059,	-0.0831577260,	4.0000000000
7684,	0.8945050461,	-0.0782834030,	3.7500000000
7685,	0.8983935416,	-0.0618067275,	3.5000000000
7686,	0.9083308486,	-0.0196994941,	3.2500000000
7687,	1.0916691514,	0.0065415994,	4.7500000000
7688,	1.1016064584,	0.0486488328,	4.5000000000
7689,	1.1054949539,	0.0651255082,	4.2500000000
7690,	1.1066452941,	0.0699998313,	4.0000000000
7691,	1.1054949539,	0.0651255082,	3.7500000000
7692,	1.1016064584,	0.0486488328,	3.5000000000
7693,	1.0916691514,	0.0065415994,	3.2500000000
7694,	1.0836762689,	-0.0273265468,	4.7500000000
7695,	1.0836762689,	-0.0273265468,	4.5000000000
7696,	1.0836762689,	-0.0273265468,	4.2500000000
7697,	1.0836762689,	-0.0273265468,	4.0000000000
7698,	1.0836762689,	-0.0273265468,	3.7500000000
7699,	1.0836762689,	-0.0273265468,	3.5000000000
7700,	1.0836762689,	-0.0273265468,	3.2500000000
7701,	1.0756833864,	-0.0611946931,	4.7500000000
7702,	1.0657460793,	-0.1033019264,	4.5000000000
7703,	1.0618575839,	-0.1197786019,	4.2500000000
7704,	1.0607072436,	-0.1246529249,	4.0000000000
7705,	1.0618575839,	-0.1197786019,	3.7500000000
7706,	1.0657460793,	-0.1033019264,	3.5000000000
7707,	1.0756833864,	-0.0611946931,	3.2500000000
7708,	1.2658678647,	-0.0325988895,	4.7500000000
7709,	1.2740841422,	0.0098777153,	4.5000000000
7710,	1.2772991941,	0.0264989269,	4.2500000000
7711,	1.2782503084,	0.0314160083,	4.0000000000
7712,	1.2772991941,	0.0264989269,	3.7500000000
7713,	1.2740841422,	0.0098777153,	3.5000000000
7714,	1.2658678647,	-0.0325988895,	3.2500000000
7715,	1.2592592593,	-0.0667641326,	4.7500000000
7716,	1.2592592593,	-0.0667641326,	4.5000000000
7717,	1.2592592593,	-0.0667641326,	4.2500000000
7718,	1.2592592593,	-0.0667641326,	4.0000000000
7719,	1.2592592593,	-0.0667641326,	3.7500000000
7720,	1.2592592593,	-0.0667641326,	3.5000000000
7721,	1.2592592593,	-0.0667641326,	3.2500000000
7722,	1.2526506538,	-0.1009293756,	4.7500000000
7723,	1.2444343763,	-0.1434059804,	4.5000000000
7724,	1.2412193244,	-0.1600271920,	4.2500000000
7725,	1.2402682101,	-0.1649442734,	4.0000000000
7726,	1.2412193244,	-0.1600271920,	3.7500000000
7727,	1.2444343763,	-0.1434059804,	3.5000000000
7728,	1.2526506538,	-0.1009293756,	3.2500000000
7729,	1.4639289888,	-0.0655090566,	4.7500000000
7730,	1.4693936320,	-0.0225916144,	4.5000000000
7731,	1.4715319619,	-0.0057979019,	4.2500000000
7732,	1.4721645476,	-0.0008297893,	4.0000000000
7733,	1.4715319619,	-0.0057979019,	3.7500000000
7734,	1.4693936320,	-0.0225916144,	3.5000000000
7735,	1.4639289888,	-0.0655090566,	3.2500000000
7736,	1.4595336077,	-0.1000288788,	4.7500000000
7737,	1.4595336077,	-0.1000288788,	4.5000000000
7738,	1.4595336077,	-0.1000288788,	4.2500000000
7739,	1.4595336077,	-0.1000288788,	4.0000000000
7740,	1.4595336077,	-0.1000288788,	3.7500000000
7741,	1.4595336077,	-0.1000288788,	3.5000000000
7742,	1.4595336077,	-0.1000288788,	3.2500000000
7743,	1.4551382266,	-0.1345487010,	4.7500000000
7744,	1.4496735833,	-0.1774661432,	4.5000000000
7745,	1.4475352535,	-0.1942598556,	4.2500000000
7746,	1.4469026677,	-0.1992279683,	4.0000000000
7747,	1.4475352535,	-0.1942598556,	3.7500000000
7748,	1.4496735833,	-0.1774661432,	3.5000000000
7749,	1.4551382266,	-0.1345487010,	3.2500000000
7750,	1.7029881532,	-0.0882661725,	4.7500000000
7751,	1.7055094214,	-0.0450757525,	4.5000000000
7752,	1.7064960005,	-0.0281752232,	4.2500000000
7753,	1.7067878619,	-0.0231755107,	4.0000000000
7754,	1.7064960005,	-0.0281752232,	3.7500000000
7755,	1.7055094214,	-0.0450757525,	3.5000000000
7756,	1.7029881532,	-0.0882661725,	3.2500000000
7757,	1.7009602195,	-0.1230055592,	4.7500000000
7758,	1.7009602195,	-0.1230055592,	4.5000000000
7759,	1.7009602195,	-0.1230055592,	4.2500000000
7760,	1.7009602195,	-0.1230055592,	4.0000000000
7761,	1.7009602195,	-0.1230055592,	3.7500000000
7762,	1.7009602195,	-0.1230055592,	3.5000000000
7763,	1.7009602195,	-0.1230055592,	3.2500000000
7764,	1.6989322857,	-0.1577449458,	4.7500000000
7765,	1.6964110176,	-0.2009353658,	4.5000000000
7766,	1.6954244384,	-0.2178358952,	4.2500000000
7767,	1.6951325771,	-0.2228356077,	4.0000000000
7768,	1.6954244384,	-0.2178358952,	3.7500000000
7769,	1.6964110176,	-0.2009353658,	3.5000000000
7770,	1.6989322857,	-0.1577449458,	3.2500000000
7771,	2.0000000000,	-0.0967804201,	4.7500000000
7772,	2.0000000000,	-0.0535164724,	4.5000000000
7773,	2.0000000000,	-0.0365871714,	4.2500000000
7774,	2.0000000000,	-0.0315789474,	4.0000000000
7775,	2.0000000000,	-0.0365871714,	3.7500000000
7776,	2.0000000000,	-0.0535164724,	3.5000000000
7777,	2.0000000000,	-0.0967804201,	3.2500000000
7778,	2.0000000000,	-0.1315789474,	4.7500000000
7779,	2.0000000000,	-0.1315789474,	4.5000000000
7780,	2.0000000000,	-0.1315789474,	4.2500000000
7781,	2.0000000000,	-0.1315789474,	4.0000000000
7782,	2.0000000000,	-0.1315789474,	3.7500000000
7783,	2.0000000000,	-0.1315789474,	3.5000000000
7784,	2.0000000000,	-0.1315789474,	3.2500000000
7785,	2.0000000000,	-0.1663774746,	4.7500000000
7786,	2.0000000000,	-0.2096414223,	4.5000000000
7787,	2.0000000000,	-0.2265707233,	4.2500000000
7788,	2.0000000000,	-0.2315789474,	4.0000000000
7789,	2.0000000000,	-0.2265707233,	3.7500000000
7790,	2.0000000000,	-0.2096414223,	3.5000000000
7791,	2.0000000000,	-0.1663774746,	3.2500000000
7792,	2.2970118468,	-0.0882661725,	4.7500000000
7793,	2.2944905786,	-0.0450757525,	4.5000000000
7794,	2.2935039995,	-0.0281752232,	4.2500000000
7795,	2.2932121381,	-0.0231755107,	4.0000000000
7796,	2.2935039995,	-0.0281752232,	3.7500000000
7797,	2.2944905786,	-0.0450757525,	3.5000000000
7798,	2.2970118468,	-0.0882661725,	3.2500000000
7799,	2.2990397805,	-0.1230055592,	4.7500000000
7800,	2.2990397805,	-0.1230055592,	4.5000000000
7801,	2.2990397805,	-0.1230055592,	4.2500000000
7802,	2.2990397805,	-0.1230055592,	4.0000000000
7803,	2.2990397805,	-0.1230055592,	3.7500000000
7804,	2.2990397805,	-0.1230055592,	3.5000000000
7805,	2.2990397805,	-0.1230055592,	3.2500000000
7806,	2.3010677143,	-0.1577449458,	4.7500000000
7807,	2.3035889824,	-0.2009353658,	4.5000000000
7808,	2.3045755616,	-0.2178358952,	4.2500000000
7809,	2.3048674229,	-0.2228356077,	4.0000000000
7810,	2.3045755616,	-0.2178358952,	3.7500000000
7811,	2.3035889824,	-0.2009353658,	3.5000000000
7812,	2.3010677143,	-0.1577449458,	3.2500000000
7813,	2.5360710112,	-0.0655090566,	4.7500000000
7814,	2.5306063680,	-0.0225916144,	4.5000000000
7815,	2.5284680381,	-0.0057979019,	4.2500000000
7816,	2.5278354524,	-0.0008297893,	4.0000000000
7817,	2.5284680381,	-0.0057979019,	3.7500000000
7818,	2.5306063680,	-0.0225916144,	3.5000000000
7819,	2.5360710112,	-0.0655090566,	3.2500000000
7820,	2.5404663923,	-0.1000288788,	4.7500000000
7821,	2.5404663923,	-0.1000288788,	4.5000000000
7822,	2.5404663923,	-0.1000288788,	4.2500000000
7823,	2.5404663923,	-0.1000288788,	4.0000000000
7824,	2.5404663923,	-0.1000288788,	3.7500000000
7825,	2.5404663923,	-0.1000288788,	3.5000000000
7826,	2.5404663923,	-0.1000288788,	3.2500000000
7827,	2.5448617734,	-0.1345487010,	4.7500000000
7828,	2.5503264167,	-0.1774661432,	4.5000000000
7829,	2.5524647465,	-0.1942598556,	4.2500000000
7830,	2.5530973323,	-0.1992279683,	4.0000000000
7831,	2.5524647465,	-0.1942598556,	3.7500000000
7832,	2.5503264167,	-0.1774661432,	3.5000000000
7833,	2.5448617734,	-0.1345487010,	3.2500000000
7834,	2.7341321353,	-0.0325988895,	4.7500000000
7835,	2.7259158578,	0.0098777153,	4.5000000000
7836,	2.7227008059,	0.0264989269,	4.2500000000
7837,	2.7217496916,	0.0314160083,	4.0000000000
7838,	2.7227008059,	0.0264989269,	3.7500000000
7839,	2.7259158578,	0.0098777153,	3.5000000000
7840,	2.7341321353,	-0.0325988895,	3.2500000000
7841,	2.7407407407,	-0.0667641326,	4.7500000000
7842,	2.7407407407,	-0.0667641326,	4.5000000000
7843,	2.7407407407,	-0.0667641326,	4.2500000000
7844,	2.7407407407,	-0.0667641326,	4.0000000000
7845,	2.7407407407,	-0.0667641326,	3.7500000000
7846,	2.7407407407,	-0.0667641326,	3.5000000000
7847,	2.7407407407,	-0.0667641326,	3.2500000000
7848,	2.7473493462,	-0.1009293756,	4.7500000000
7849,	2.7555656237,	-0.1434059804,	4.5000000000
7850,	2.7587806756,	-0.1600271920,	4.2500000000
7851,	2.7597317899,	-0.1649442734,	4.0000000000
7852,	2.7587806756,	-0.1600271920,	3.7500000000
7853,	2.7555656237,	-0.1434059804,	3.5000000000
7854,	2.7473493462,	-0.1009293756,	3.2500000000
7855,	2.9083308486,	0.0065415994,	4.7500000000
7856,	2.8983935416,	0.0486488328,	4.5000000000
7857,	2.8945050461,	0.0651255082,	4.2500000000
7858,	2.8933547059,	0.0699998313,	4.0000000000
7859,	2.8945050461,	0.0651255082,	3.7500000000
7860,	2.8983935416,	0.0486488328,	3.5000000000
7861,	2.9083308486,	0.0065415994,	3.2500000000
7862,	2.9163237311,	-0.0273265468,	4.7500000000
7863,	2.9163237311,	-0.0273265468,	4.5000000000
7864,	2.9163237311,	-0.0273265468,	4.2500000000
7865,	2.9163237311,	-0.0273265468,	4.0000000000
7866,	2.9163237311,	-0.0273265468,	3.7500000000
7867,	2.9163237311,	-0.0273265468,	3.5000000000
7868,	2.9163237311,	-0.0273265468,	3.2500000000
7869,	2.9243166136,	-0.0611946931,	4.7500000000
7870,	2.9342539207,	-0.1033019264,	4.5000000000
7871,	2.9381424161,	-0.1197786019,	4.2500000000
7872,	2.9392927564,	-0.1246529249,	4.0000000000
7873,	2.9381424161,	-0.1197786019,	3.7500000000
7874,	2.9342539207,	-0.1033019264,	3.5000000000
7875,	2.9243166136,	-0.0611946931,	3.2500000000
7876,	3.0756833864,	0.0480367983,	4.7500000000
7877,	3.0657460793,	0.0901440317,	4.5000000000
7878,	3.0618575839,	0.1066207071,	4.2500000000
7879,	3.0607072436,	0.1114950302,	4.0000000000
7880,	3.0618575839,	0.1066207071,	3.7500000000
7881,	3.0657460793,	0.0901440317,	3.5000000000
7882,	3.0756833864,	0.0480367983,	3.2500000000
7883,	3.0836762689,	0.0141686521,	4.7500000000
7884,	3.0836762689,	0.0141686521,	4.5000000000
7885,	3.0836762689,	0.0141686521,	4.2500000000
7886,	3.0836762689,	0.0141686521,	4.0000000000
7887,	3.0836762689,	0.0141686521,	3.7500000000
7888,	3.0836762689,	0.0141686521,	3.5000000000
7889,	3.0836762689,	0.0141686521,	3.2500000000
7890,	3.0916691514,	-0.0196994941,	4.7500000000
7891,	3.1016064584,	-0.0618067275,	4.5000000000
7892,	3.1054949539,	-0.0782834030,	4.2500000000
7893,	3.1066452941,	-0.0831577260,	4.0000000000
7894,	3.1054949539,	-0.0782834030,	3.7500000000
7895,	3.1016064584,	-0.0618067275,	3.5000000000
7896,	3.0916691514,	-0.0196994941,	3.2500000000
7897,	3.2526506538,	0.0877714809,	4.7500000000
7898,	3.2444343763,	0.1302480857,	4.5000000000
7899,	3.2412193244,	0.1468692972,	4.2500000000
7900,	3.2402682101,	0.1517863786,	4.0000000000
7901,	3.2412193244,	0.1468692972,	3.7500000000
7902,	3.2444343763,	0.1302480857,	3.5000000000
7903,	3.2526506538,	0.0877714809,	3.2500000000
7904,	3.2592592593,	0.0536062378,	4.7500000000
7905,	3.2592592593,	0.0536062378,	4.5000000000
7906,	3.2592592593,	0.0536062378,	4.2500000000
7907,	3.2592592593,	0.0536062378,	4.0000000000
7908,	3.2592592593,	0.0536062378,	3.7500000000
7909,	3.2592592593,	0.0536062378,	3.5000000000
7910,	3.2592592593,	0.0536062378,	3.2500000000
7911,	3.2658678647,	0.0194409947,	4.7500000000
7912,	3.2740841422,	-0.0230356101,	4.5000000000
7913,	3.2772991941,	-0.0396568216,	4.2500000000
7914,	3.2782503084,	-0.0445739030,	4.0000000000
7915,	3.2772991941,	-0.0396568216,	3.7500000000
7916,	3.2740841422,	-0.0230356101,	3.5000000000
7917,	3.2658678647,	0.0194409947,	3.2500000000
7918,	3.4551382266,	0.1213908062,	4.7500000000
7919,	3.4496735833,	0.1643082485,	4.5000000000
7920,	3.4475352535,	0.1811019609,	4.2500000000
7921,	3.4469026677,	0.1860700735,	4.0000000000
7922,	3.4475352535,	0.1811019609,	3.7500000000
7923,	3.4496735833,	0.1643082485,	3.5000000000
7924,	3.4551382266,	0.1213908062,	3.2500000000
7925,	3.4595336077,	0.0868709840,	4.7500000000
7926,	3.4595336077,	0.0868709840,	4.5000000000
7927,	3.4595336077,	0.0868709840,	4.2500000000
7928,	3.4595336077,	0.0868709840,	4.0000000000
7929,	3.4595336077,	0.0868709840,	3.7500000000
7930,	3.4595336077,	0.0868709840,	3.5000000000
7931,	3.4595336077,	0.0868709840,	3.2500000000
7932,	3.4639289888,	0.0523511618,	4.7500000000
7933,	3.4693936320,	0.0094337196,	4.5000000000
7934,	3.4715319619,	-0.0073599928,	4.2500000000
7935,	3.4721645476,	-0.0123281054,	4.0000000000
7936,	3.4715319619,	-0.0073599928,	3.7500000000
7937,	3.4693936320,	0.0094337196,	3.5000000000
7938,	3.4639289888,	0.0523511618,	3.2500000000
7939,	3.6989322857,	0.1445870511,	4.7500000000
7940,	3.6964110176,	0.1877774711,	4.5000000000
7941,	3.6954244384,	0.2046780004,	4.2500000000
7942,	3.6951325771,	0.2096777129,	4.0000000000
7943,	3.6954244384,	0.2046780004,	3.7500000000
7944,	3.6964110176,	0.1877774711,	3.5000000000
7945,	3.6989322857,	0.1445870511,	3.2500000000
7946,	3.7009602195,	0.1098476644,	4.7500000000
7947,	3.7009602195,	0.1098476644,	4.5000000000
7948,	3.7009602195,	0.1098476644,	4.2500000000
7949,	3.7009602195,	0.1098476644,	4.0000000000
7950,	3.7009602195,	0.1098476644,	3.7500000000
7951,	3.7009602195,	0.1098476644,	3.5000000000
7952,	3.7009602195,	0.1098476644,	3.2500000000
7953,	3.7029881532,	0.0751082778,	4.7500000000
7954,	3.7055094214,	0.0319178578,	4.5000000000
7955,	3.7064960005,	0.0150173284,	4.2500000000
7956,	3.7067878619,	0.0100176159,	4.0000000000
7957,	3.7064960005,	0.0150173284,	3.7500000000
7958,	3.7055094214,	0.0319178578,	3.5000000000
7959,	3.7029881532,	0.0751082778,	3.2500000000
7960,	4.0000000000,	0.1532195799,	4.7500000000
7961,	4.0000000000,	0.1964835276,	4.5000000000
7962,	4.0000000000,	0.2134128286,	4.2500000000
7963,	4.0000000000,	0.2184210526,	4.0000000000
7964,	4.0000000000,	0.2134128286,	3.7500000000
7965,	4.0000000000,	0.1964835276,	3.5000000000
7966,	4.0000000000,	0.1532195799,	3.2500000000
7967,	4.0000000000,	0.1184210526,	4.7500000000
7968,	4.0000000000,	0.1184210526,	4.5000000000
7969,	4.0000000000,	0.1184210526,	4.2500000000
7970,	4.0000000000,	0.1184210526,	4.0000000000
7971,	4.0000000000,	0.1184210526,	3.7500000000
7972,	4.0000000000,	0.1184210526,	3.5000000000
7973,	4.0000000000,	0.1184210526,	3.2500000000
7974,	4.0000000000,	0.0836225254,	4.7500000000
7975,	4.0000000000,	0.0403585777,	4.5000000000
7976,	4.0000000000,	0.0234292767,	4.2500000000
7977,	4.0000000000,	0.0184210526,	4.0000000000
7978,	4.0000000000,	0.0234292767,	3.7500000000
7979,	4.0000000000,	0.0403585777,	3.5000000000
7980,	4.0000000000,	0.0836225254,	3.2500000000
*NSET, NSET=WARP_XMIN
1, 8, 15, 22, 29, 36, 43, 50, 57, 64, 71, 78, 85, 92, 99, 106
113, 120, 127, 134, 141, 148, 155, 162, 169, 176, 183, 190, 197, 204, 211, 218
225, 232, 239, 246, 253, 260, 267, 274, 281, 288, 295, 302, 309, 316, 323, 330
337, 344, 351, 358, 365, 372, 379, 386, 393, 400, 407, 414, 421, 428, 435, 442
449, 456, 463, 470, 477, 484, 491, 498, 505, 512, 519, 526, 533, 540, 547, 554
561, 568, 575, 582, 589, 596, 603, 610, 617, 624, 631, 638, 645, 652, 659, 666
673, 680, 687, 694, 701, 708, 715, 722, 729, 736, 743, 750, 757, 764, 771, 778
785, 792
*NSET, NSET=WARP_XMAX
3199, 3206, 3213, 3220, 3227, 3234, 3241, 3248, 3255, 3262, 3269, 3276, 3283, 3290, 3297, 3304
3311, 3318, 3325, 3332, 3339, 3346, 3353, 3360, 3367, 3374, 3381, 3388, 3395, 3402, 3409, 3416
3423, 3430, 3437, 3444, 3451, 3458, 3465, 3472, 3479, 3486, 3493, 3500, 3507, 3514, 3521, 3528
3535, 3542, 3549, 3556, 3563, 3570, 3577, 3584, 3591, 3598, 3605, 3612, 3619, 3626, 3633, 3640
3647, 3654, 3661, 3668, 3675, 3682, 3689, 3696, 3703, 3710, 3717, 3724, 3731, 3738, 3745, 3752
3759, 3766, 3773, 3780, 3787, 3794, 3801, 3808, 3815, 3822, 3829, 3836, 3843, 3850, 3857, 3864
3871, 3878, 3885, 3892, 3899, 3906, 3913, 3920, 3927, 3934, 3941, 3948, 3955, 3962, 3969, 3976
3983, 3990
*NSET, NSET=WARP_YMIN
1005, 1404, 2601, 3000
*NSET, NSET=WARP_YMAX
193, 592, 1789, 2188, 3385, 3784
*NSET, NSET=WARP_ZMIN
1, 2, 3, 4, 5, 6, 7, 8, 9, 10, 11, 12, 13, 14, 15, 16
17, 18, 19, 20, 21, 799, 800, 801, 802, 803, 804, 805, 806, 807, 808, 809
810, 811, 812, 813, 814, 815, 816, 817, 818, 819, 1597, 1598, 1599, 1600, 1601, 1602
1603, 1604, 1605, 1606, 1607, 1608, 1609, 1610, 1611, 1612, 1613, 1614, 1615, 1616, 1617, 2395
2396, 2397, 2398, 2399, 2400, 2401, 2402, 2403, 2404, 2405, 2406, 2407, 2408, 2409, 2410, 2411
2412, 2413, 2414, 2415, 3193, 3194, 3195, 3196, 3197, 3198, 3199, 3200, 3201, 3202, 3203, 3204
3205, 3206, 3207, 3208, 3209, 3210, 3211, 3212, 3213
*NSET, NSET=WARP_ZMAX
778, 779, 780, 781, 782, 783, 784, 785, 786, 787, 788, 789, 790, 791, 792, 793
794, 795, 796, 797, 798, 1576, 1577, 1578, 1579, 1580, 1581, 1582, 1583, 1584, 1585, 1586
1587, 1588, 1589, 1590, 1591, 1592, 1593, 1594, 1595, 1596, 2374, 2375, 2376, 2377, 2378, 2379
2380, 2381, 2382, 2383, 2384, 2385, 2386, 2387, 2388, 2389, 2390, 2391, 2392, 2393, 2394, 3172
3173, 3174, 3175, 3176, 3177, 3178, 3179, 3180, 3181, 3182, 3183, 3184, 3185, 3186, 3187, 3188
3189, 3190, 3191, 3192, 3970, 3971, 3972, 3973, 3974, 3975, 3976, 3977, 3978, 3979, 3980, 3981
3982, 3983, 3984, 3985, 3986, 3987, 3988, 3989, 3990
*NSET, NSET=WEFT_XMIN
3991, 3992, 3993, 3994, 3995, 3996, 3997, 3998, 3999, 4000, 4001, 4002, 4003, 4004, 4005, 4006
4007, 4008, 4009, 4010, 4011, 4789, 4790, 4791, 4792, 4793, 4794, 4795, 4796, 4797, 4798, 4799
4800, 4801, 4802, 4803, 4804, 4805, 4806, 4807, 4808, 4809, 5587, 5588, 5589, 5590, 5591, 5592
5593, 5594, 5595, 5596, 5597, 5598, 5599, 5600, 5601, 5602, 5603, 5604, 5605, 5606, 5607, 6385
6386, 6387, 6388, 6389, 6390, 6391, 6392, 6393, 6394, 6395, 6396, 6397, 6398, 6399, 6400, 6401
6402, 6403, 6404, 6405, 7183, 7184, 7185, 7186, 7187, 7188, 7189, 7190, 7191, 7192, 7193, 7194
7195, 7196, 7197, 7198, 7199, 7200, 7201, 7202, 7203
*NSET, NSET=WEFT_XMAX
4768, 4769, 4770, 4771, 4772, 4773, 4774, 4775, 4776, 4777, 4778, 4779, 4780, 4781, 4782, 4783
4784, 4785, 4786, 4787, 4788, 5566, 5567, 5568, 5569, 5570, 5571, 5572, 5573, 5574, 5575, 5576
5577, 5578, 5579, 5580, 5581, 5582, 5583, 5584, 5585, 5586, 6364, 6365, 6366, 6367, 6368, 6369
6370, 6371, 6372, 6373, 6374, 6375, 6376, 6377, 6378, 6379, 6380, 6381, 6382, 6383, 6384, 7162
7163, 7164, 7165, 7166, 7167, 7168, 7169, 7170, 7171, 7172, 7173, 7174, 7175, 7176, 7177, 7178
7179, 7180, 7181, 7182, 7960, 7961, 7962, 7963, 7964, 7965, 7966, 7967, 7968, 7969, 7970, 7971
7972, 7973, 7974, 7975, 7976, 7977, 7978, 7979, 7980
*NSET, NSET=WEFT_YMIN
4197, 4596, 5793, 6192, 7389, 7788
*NSET, NSET=WEFT_YMAX
4981, 5380, 6577, 6976
*NSET, NSET=WEFT_ZMIN
3997, 4004, 4011, 4018, 4025, 4032, 4039, 4046, 4053, 4060, 4067, 4074, 4081, 4088, 4095, 4102
4109, 4116, 4123, 4130, 4137, 4144, 4151, 4158, 4165, 4172, 4179, 4186, 4193, 4200, 4207, 4214
4221, 4228, 4235, 4242, 4249, 4256, 4263, 4270, 4277, 4284, 4291, 4298, 4305, 4312, 4319, 4326
4333, 4340, 4347, 4354, 4361, 4368, 4375, 4382, 4389, 4396, 4403, 4410, 4417, 4424, 4431, 4438
4445, 4452, 4459, 4466, 4473, 4480, 4487, 4494, 4501, 4508, 4515, 4522, 4529, 4536, 4543, 4550
4557, 4564, 4571, 4578, 4585, 4592, 4599, 4606, 4613, 4620, 4627, 4634, 4641, 4648, 4655, 4662
4669, 4676, 4683, 4690, 4697, 4704, 4711, 4718, 4725, 4732, 4739, 4746, 4753, 4760, 4767, 4774
4781, 4788
*NSET, NSET=WEFT_ZMAX
7183, 7190, 7197, 7204, 7211, 7218, 7225, 7232, 7239, 7246, 7253, 7260, 7267, 7274, 7281, 7288
7295, 7302, 7309, 7316, 7323, 7330, 7337, 7344, 7351, 7358, 7365, 7372, 7379, 7386, 7393, 7400
7407, 7414, 7421, 7428, 7435, 7442, 7449, 7456, 7463, 7470, 7477, 7484, 7491, 7498, 7505, 7512
7519, 7526, 7533, 7540, 7547, 7554, 7561, 7568, 7575, 7582, 7589, 7596, 7603, 7610, 7617, 7624
7631, 7638, 7645, 7652, 7659, 7666, 7673, 7680, 7687, 7694, 7701, 7708, 7715, 7722, 7729, 7736
7743, 7750, 7757, 7764, 7771, 7778, 7785, 7792, 7799, 7806, 7813, 7820, 7827, 7834, 7841, 7848
7855, 7862, 7869, 7876, 7883, 7890, 7897, 7904, 7911, 7918, 7925, 7932, 7939, 7946, 7953, 7960
7967, 7974
*NSET, NSET=WARP_SEGMENT_0
1, 2, 3, 4, 5, 6, 7, 8, 9, 10, 11, 12, 13, 14, 15, 16
17, 18, 19, 20, 21, 22, 23, 24, 25, 26, 27, 28, 29, 30, 31, 32
33, 34, 35, 36, 37, 38, 39, 40, 41, 42, 43, 44, 45, 46, 47, 48
49, 50, 51, 52, 53, 54, 55, 56, 57, 58, 59, 60, 61, 62, 63, 64
65, 66, 67, 68, 69, 70, 71, 72, 73, 74, 75, 76, 77, 78, 79, 80
81, 82, 83, 84, 85, 86, 87, 88, 89, 90, 91, 92, 93, 94, 95, 96
97, 98, 99, 100, 101, 102, 103, 104, 105, 106, 107, 108, 109, 110, 111, 112
113, 114, 115, 116, 117, 118, 119, 120, 121, 122, 123, 124, 125, 126, 127, 128
129, 130, 131, 132, 133, 134, 135, 136, 137, 138, 139, 140, 141, 142, 143, 144
145, 146, 147, 148, 149, 150, 151, 152, 153, 154, 155, 156, 157, 158, 159, 160
161, 162, 163, 164, 165, 166, 167, 168, 169, 170, 171, 172, 173, 174, 175, 176
177, 178, 179, 180, 181, 182, 183, 184, 185, 186, 187, 188, 189, 190, 191, 192
193, 194, 195, 196, 197, 198, 199, 200, 201, 202, 203, 204, 205, 206, 207, 208
209, 210, 211, 212, 213, 214, 215, 216, 217, 218, 219, 220, 221, 222, 223, 224
225, 226, 227, 228, 229, 230, 231, 232, 233, 234, 235, 236, 237, 238, 239, 240
241, 242, 243, 244, 245, 246, 247, 248, 249, 250, 251, 252, 253, 254, 255, 256
257, 258, 259, 260, 261, 262, 263, 264, 265, 266, 267, 268, 269, 270, 271, 272
273, 274, 275, 276, 277, 278, 279, 280, 281, 282, 283, 284, 285, 286, 287, 288
289, 290, 291, 292, 293, 294, 295, 296, 297, 298, 299, 300, 301, 302, 303, 304
305, 306, 307, 308, 309, 310, 311, 312, 313, 314, 315, 316, 317, 318, 319, 320
321, 322, 323, 324, 325, 326, 327, 328, 329, 330, 331, 332, 333, 334, 335, 336
337, 338, 339, 340, 341, 342, 343, 344, 345, 346, 347, 348, 349, 350, 351, 352
353, 354, 355, 356, 357, 358, 359, 360, 361, 362, 363, 364, 365, 366, 367, 368
369, 370, 371, 372, 373, 374, 375, 376, 377, 378, 379, 380, 381, 382, 383, 384
385, 386, 387, 388, 389, 390, 391, 392, 393, 394, 395, 396, 397, 398, 399
*NSET, NSET=WARP_SEGMENT_1
400, 401, 402, 403, 404, 405, 406, 407, 408, 409, 410, 411, 412, 413, 414, 415
416, 417, 418, 419, 420, 421, 422, 423, 424, 425, 426, 427, 428, 429, 430, 431
432, 433, 434, 435, 436, 437, 438, 439, 440, 441, 442, 443, 444, 445, 446, 447
448, 449, 450, 451, 452, 453, 454, 455, 456, 457, 458, 459, 460, 461, 462, 463
464, 465, 466, 467, 468, 469, 470, 471, 472, 473, 474, 475, 476, 477, 478, 479
480, 481, 482, 483, 484, 485, 486, 487, 488, 489, 490, 491, 492, 493, 494, 495
496, 497, 498, 499, 500, 501, 502, 503, 504, 505, 506, 507, 508, 509, 510, 511
512, 513, 514, 515, 516, 517, 518, 519, 520, 521, 522, 523, 524, 525, 526, 527
528, 529, 530, 531, 532, 533, 534, 535, 536, 537, 538, 539, 540, 541, 542, 543
544, 545, 546, 547, 548, 549, 550, 551, 552, 553, 554, 555, 556, 557, 558, 559
560, 561, 562, 563, 564, 565, 566, 567, 568, 569, 570, 571, 572, 573, 574, 575
576, 577, 578, 579, 580, 581, 582, 583, 584, 585, 586, 587, 588, 589, 590, 591
592, 593, 594, 595, 596, 597, 598, 599, 600, 601, 602, 603, 604, 605, 606, 607
608, 609, 610, 611, 612, 613, 614, 615, 616, 617, 618, 619, 620, 621, 622, 623
624, 625, 626, 627, 628, 629, 630, 631, 632, 633, 634, 635, 636, 637, 638, 639
640, 641, 642, 643, 644, 645, 646, 647, 648, 649, 650, 651, 652, 653, 654, 655
656, 657, 658, 659, 660, 661, 662, 663, 664, 665, 666, 667, 668, 669, 670, 671
672, 673, 674, 675, 676, 677, 678, 679, 680, 681, 682, 683, 684, 685, 686, 687
688, 689, 690, 691, 692, 693, 694, 695, 696, 697, 698, 699, 700, 701, 702, 703
704, 705, 706, 707, 708, 709, 710, 711, 712, 713, 714, 715, 716, 717, 718, 719
720, 721, 722, 723, 724, 725, 726, 727, 728, 729, 730, 731, 732, 733, 734, 735
736, 737, 738, 739, 740, 741, 742, 743, 744, 745, 746, 747, 748, 749, 750, 751
752, 753, 754, 755, 756, 757, 758, 759, 760, 761, 762, 763, 764, 765, 766, 767
768, 769, 770, 771, 772, 773, 774, 775, 776, 777, 778, 779, 780, 781, 782, 783
784, 785, 786, 787, 788, 789, 790, 791, 792, 793, 794, 795, 796, 797, 798
*NSET, NSET=WARP_SEGMENT_2
799, 800, 801, 802, 803, 804, 805, 806, 807, 808, 809, 810, 811, 812, 813, 814
815, 816, 817, 818, 819, 820, 821, 822, 823, 824, 825, 826, 827, 828, 829, 830
831, 832, 833, 834, 835, 836, 837, 838, 839, 840, 841, 842, 843, 844, 845, 846
847, 848, 849, 850, 851, 852, 853, 854, 855, 856, 857, 858, 859, 860, 861, 862
863, 864, 865, 866, 867, 868, 869, 870, 871, 872, 873, 874, 875, 876, 877, 878
879, 880, 881, 882, 883, 884, 885, 886, 887, 888, 889, 890, 891, 892, 893, 894
895, 896, 897, 898, 899, 900, 901, 902, 903, 904, 905, 906, 907, 908, 909, 910
911, 912, 913, 914, 915, 916, 917, 918, 919, 920, 921, 922, 923, 924, 925, 926
927, 928, 929, 930, 931, 932, 933, 934, 935, 936, 937, 938, 939, 940, 941, 942
943, 944, 945, 946, 947, 948, 949, 950, 951, 952, 953, 954, 955, 956, 957, 958
959, 960, 961, 962, 963, 964, 965, 966, 967, 968, 969, 970, 971, 972, 973, 974
975, 976, 977, 978, 979, 980, 981, 982, 983, 984, 985, 986, 987, 988, 989, 990
991, 992, 993, 994, 995, 996, 997, 998, 999, 1000, 1001, 1002, 1003, 1004, 1005, 1006
1007, 1008, 1009, 1010, 1011, 1012, 1013, 1014, 1015, 1016, 1017, 1018, 1019, 1020, 1021, 1022
1023, 1024, 1025, 1026, 1027, 1028, 1029, 1030, 1031, 1032, 1033, 1034, 1035, 1036, 1037, 1038
1039, 1040, 1041, 1042, 1043, 1044, 1045, 1046, 1047, 1048, 1049, 1050, 1051, 1052, 1053, 1054
1055, 1056, 1057, 1058, 1059, 1060, 1061, 1062, 1063, 1064, 1065, 1066, 1067, 1068, 1069, 1070
1071, 1072, 1073, 1074, 1075, 1076, 1077, 1078, 1079, 1080, 1081, 1082, 1083, 1084, 1085, 1086
1087, 1088, 1089, 1090, 1091, 1092, 1093, 1094, 1095, 1096, 1097, 1098, 1099, 1100, 1101, 1102
1103, 1104, 1105, 1106, 1107, 1108, 1109, 1110, 1111, 1112, 1113, 1114, 1115, 1116, 1117, 1118
1119, 1120, 1121, 1122, 1123, 1124, 1125, 1126, 1127, 1128, 1129, 1130, 1131, 1132, 1133, 1134
1135, 1136, 1137, 1138, 1139, 1140, 1141, 1142, 1143, 1144, 1145, 1146, 1147, 1148, 1149, 1150
1151, 1152, 1153, 1154, 1155, 1156, 1157, 1158, 1159, 1160, 1161, 1162, 1163, 1164, 1165, 1166
1167, 1168, 1169, 1170, 1171, 1172, 1173, 1174, 1175, 1176, 1177, 1178, 1179, 1180, 1181, 1182
1183, 1184, 1185, 1186, 1187, 1188, 1189, 1190, 1191, 1192, 1193, 1194, 1195, 1196, 1197
*NSET, NSET=WARP_SEGMENT_3
1198, 1199, 1200, 1201, 1202, 1203, 1204, 1205, 1206, 1207, 1208, 1209, 1210, 1211, 1212, 1213
1214, 1215, 1216, 1217, 1218, 1219, 1220, 1221, 1222, 1223, 1224, 1225, 1226, 1227, 1228, 1229
1230, 1231, 1232, 1233, 1234, 1235, 1236, 1237, 1238, 1239, 1240, 1241, 1242, 1243, 1244, 1245
1246, 1247, 1248, 1249, 1250, 1251, 1252, 1253, 1254, 1255, 1256, 1257, 1258, 1259, 1260, 1261
1262, 1263, 1264, 1265, 1266, 1267, 1268, 1269, 1270, 1271, 1272, 1273, 1274, 1275, 1276, 1277
1278, 1279, 1280, 1281, 1282, 1283, 1284, 1285, 1286, 1287, 1288, 1289, 1290, 1291, 1292, 1293
1294, 1295, 1296, 1297, 1298, 1299, 1300, 1301, 1302, 1303, 1304, 1305, 1306, 1307, 1308, 1309
1310, 1311, 1312, 1313, 1314, 1315, 1316, 1317, 1318, 1319, 1320, 1321, 1322, 1323, 1324, 1325
1326, 1327, 1328, 1329, 1330, 1331, 1332, 1333, 1334, 1335, 1336, 1337, 1338, 1339, 1340, 1341
1342, 1343, 1344, 1345, 1346, 1347, 1348, 1349, 1350, 1351, 1352, 1353, 1354, 1355, 1356, 1357
1358, 1359, 1360, 1361, 1362, 1363, 1364, 1365, 1366, 1367, 1368, 1369, 1370, 1371, 1372, 1373
1374, 1375, 1376, 1377, 1378, 1379, 1380, 1381, 1382, 1383, 1384, 1385, 1386, 1387, 1388, 1389
1390, 1391, 1392, 1393, 1394, 1395, 1396, 1397, 1398, 1399, 1400, 1401, 1402, 1403, 1404, 1405
1406, 1407, 1408, 1409, 1410, 1411, 1412, 1413, 1414, 1415, 1416, 1417, 1418, 1419, 1420, 1421
1422, 1423, 1424, 1425, 1426, 1427, 1428, 1429, 1430, 1431, 1432, 1433, 1434, 1435, 1436, 1437
1438, 1439, 1440, 1441, 1442, 1443, 1444, 1445, 1446, 1447, 1448, 1449, 1450, 1451, 1452, 1453
1454, 1455, 1456, 1457, 1458, 1459, 1460, 1461, 1462, 1463, 1464, 1465, 1466, 1467, 1468, 1469
1470, 1471, 1472, 1473, 1474, 1475, 1476, 1477, 1478, 1479, 1480, 1481, 1482, 1483, 1484, 1485
1486, 1487, 1488, 1489, 1490, 1491, 1492, 1493, 1494, 1495, 1496, 1497, 1498, 1499, 1500, 1501
1502, 1503, 1504, 1505, 1506, 1507, 1508, 1509, 1510, 1511, 1512, 1513, 1514, 1515, 1516, 1517
1518, 1519, 1520, 1521, 1522, 1523, 1524, 1525, 1526, 1527, 1528, 1529, 1530, 1531, 1532, 1533
1534, 1535, 1536, 1537, 1538, 1539, 1540, 1541, 1542, 1543, 1544, 1545, 1546, 1547, 1548, 1549
1550, 1551, 1552, 1553, 1554, 1555, 1556, 1557, 1558, 1559, 1560, 1561, 1562, 1563, 1564, 1565
1566, 1567, 1568, 1569, 1570, 1571, 1572, 1573, 1574, 1575, 1576, 1577, 1578, 1579, 1580, 1581
1582, 1583, 1584, 1585, 1586, 1587, 1588, 1589, 1590, 1591, 1592, 1593, 1594, 1595, 1596
*NSET, NSET=WARP_SEGMENT_4
1597, 1598, 1599, 1600, 1601, 1602, 1603, 1604, 1605, 1606, 1607, 1608, 1609, 1610, 1611, 1612
1613, 1614, 1615, 1616, 1617, 1618, 1619, 1620, 1621, 1622, 1623, 1624, 1625, 1626, 1627, 1628
1629, 1630, 1631, 1632, 1633, 1634, 1635, 1636, 1637, 1638, 1639, 1640, 1641, 1642, 1643, 1644
1645, 1646, 1647, 1648, 1649, 1650, 1651, 1652, 1653, 1654, 1655, 1656, 1657, 1658, 1659, 1660
1661, 1662, 1663, 1664, 1665, 1666, 1667, 1668, 1669, 1670, 1671, 1672, 1673, 1674, 1675, 1676
1677, 1678, 1679, 1680, 1681, 1682, 1683, 1684, 1685, 1686, 1687, 1688, 1689, 1690, 1691, 1692
1693, 1694, 1695, 1696, 1697, 1698, 1699, 1700, 1701, 1702, 1703, 1704, 1705, 1706, 1707, 1708
1709, 1710, 1711, 1712, 1713, 1714, 1715, 1716, 1717, 1718, 1719, 1720, 1721, 1722, 1723, 1724
1725, 1726, 1727, 1728, 1729, 1730, 1731, 1732, 1733, 1734, 1735, 1736, 1737, 1738, 1739, 1740
1741, 1742, 1743, 1744, 1745, 1746, 1747, 1748, 1749, 1750, 1751, 1752, 1753, 1754, 1755, 1756
1757, 1758, 1759, 1760, 1761, 1762, 1763, 1764, 1765, 1766, 1767, 1768, 1769, 1770, 1771, 1772
1773, 1774, 1775, 1776, 1777, 1778, 1779, 1780, 1781, 1782, 1783, 1784, 1785, 1786, 1787, 1788
1789, 1790, 1791, 1792, 1793, 1794, 1795, 1796, 1797, 1798, 1799, 1800, 1801, 1802, 1803, 1804
1805, 1806, 1807, 1808, 1809, 1810, 1811, 1812, 1813, 1814, 1815, 1816, 1817, 1818, 1819, 1820
1821, 1822, 1823, 1824, 1825, 1826, 1827, 1828, 1829, 1830, 1831, 1832, 1833, 1834, 1835, 1836
1837, 1838, 1839, 1840, 1841, 1842, 1843, 1844, 1845, 1846, 1847, 1848, 1849, 1850, 1851, 1852
1853, 1854, 1855, 1856, 1857, 1858, 1859, 1860, 1861, 1862, 1863, 1864, 1865, 1866, 1867, 1868
1869, 1870, 1871, 1872, 1873, 1874, 1875, 1876, 1877, 1878, 1879, 1880, 1881, 1882, 1883, 1884
1885, 1886, 1887, 1888, 1889, 1890, 1891, 1892, 1893, 1894, 1895, 1896, 1897, 1898, 1899, 1900
1901, 1902, 1903, 1904, 1905, 1906, 1907, 1908, 1909, 1910, 1911, 1912, 1913, 1914, 1915, 1916
1917, 1918, 1919, 1920, 1921, 1922, 1923, 1924, 1925, 1926, 1927, 1928, 1929, 1930, 1931, 1932
1933, 1934, 1935, 1936, 1937, 1938, 1939, 1940, 1941, 1942, 1943, 1944, 1945, 1946, 1947, 1948
1949, 1950, 1951, 1952, 1953, 1954, 1955, 1956, 1957, 1958, 1959, 1960, 1961, 1962, 1963, 1964
1965, 1966, 1967, 1968, 1969, 1970, 1971, 1972, 1973, 1974, 1975, 1976, 1977, 1978, 1979, 1980
1981, 1982, 1983, 1984, 1985, 1986, 1987, 1988, 1989, 1990, 1991, 1992, 1993, 1994, 1995
*NSET, NSET=WARP_SEGMENT_5
1996, 1997, 1998, 1999, 2000, 2001, 2002, 2003, 2004, 2005, 2006, 2007, 2008, 2009, 2010, 2011
2012, 2013, 2014, 2015, 2016, 2017, 2018, 2019, 2020, 2021, 2022, 2023, 2024, 2025, 2026, 2027
2028, 2029, 2030, 2031, 2032, 2033, 2034, 2035, 2036, 2037, 2038, 2039, 2040, 2041, 2042, 2043
2044, 2045, 2046, 2047, 2048, 2049, 2050, 2051, 2052, 2053, 2054, 2055, 2056, 2057, 2058, 2059
2060, 2061, 2062, 2063, 2064, 2065, 2066, 2067, 2068, 2069, 2070, 2071, 2072, 2073, 2074, 2075
2076, 2077, 2078, 2079, 2080, 2081, 2082, 2083, 2084, 2085, 2086, 2087, 2088, 2089, 2090, 2091
2092, 2093, 2094, 2095, 2096, 2097, 2098, 2099, 2100, 2101, 2102, 2103, 2104, 2105, 2106, 2107
2108, 2109, 2110, 2111, 2112, 2113, 2114, 2115, 2116, 2117, 2118, 2119, 2120, 2121, 2122, 2123
2124, 2125, 2126, 2127, 2128, 2129, 2130, 2131, 2132, 2133, 2134, 2135, 2136, 2137, 2138, 2139
2140, 2141, 2142, 2143, 2144, 2145, 2146, 2147, 2148, 2149, 2150, 2151, 2152, 2153, 2154, 2155
2156, 2157, 2158, 2159, 2160, 2161, 2162, 2163, 2164, 2165, 2166, 2167, 2168, 2169, 2170, 2171
2172, 2173, 2174, 2175, 2176, 2177, 2178, 2179, 2180, 2181, 2182, 2183, 2184, 2185, 2186, 2187
2188, 2189, 2190, 2191, 2192, 2193, 2194, 2195, 2196, 2197, 2198, 2199, 2200, 2201, 2202, 2203
2204, 2205, 2206, 2207, 2208, 2209, 2210, 2211, 2212, 2213, 2214, 2215, 2216, 2217, 2218, 2219
2220, 2221, 2222, 2223, 2224, 2225, 2226, 2227, 2228, 2229, 2230, 2231, 2232, 2233, 2234, 2235
2236, 2237, 2238, 2239, 2240, 2241, 2242, 2243, 2244, 2245, 2246, 2247, 2248, 2249, 2250, 2251
2252, 2253, 2254, 2255, 2256, 2257, 2258, 2259, 2260, 2261, 2262, 2263, 2264, 2265, 2266, 2267
2268, 2269, 2270, 2271, 2272, 2273, 2274, 2275, 2276, 2277, 2278, 2279, 2280, 2281, 2282, 2283
2284, 2285, 2286, 2287, 2288, 2289, 2290, 2291, 2292, 2293, 2294, 2295, 2296, 2297, 2298, 2299
2300, 2301, 2302, 2303, 2304, 2305, 2306, 2307, 2308, 2309, 2310, 2311, 2312, 2313, 2314, 2315
2316, 2317, 2318, 2319, 2320, 2321, 2322, 2323, 2324, 2325, 2326, 2327, 2328, 2329, 2330, 2331
2332, 2333, 2334, 2335, 2336, 2337, 2338, 2339, 2340, 2341, 2342, 2343, 2344, 2345, 2346, 2347
2348, 2349, 2350, 2351, 2352, 2353, 2354, 2355, 2356, 2357, 2358, 2359, 2360, 2361, 2362, 2363
2364, 2365, 2366, 2367, 2368, 2369, 2370, 2371, 2372, 2373, 2374, 2375, 2376, 2377, 2378, 2379
2380, 2381, 2382, 2383, 2384, 2385, 2386, 2387, 2388, 2389, 2390, 2391, 2392, 2393, 2394
*NSET, NSET=WARP_SEGMENT_6
2395, 2396, 2397, 2398, 2399, 2400, 2401, 2402, 2403, 2404, 2405, 2406, 2407, 2408, 2409, 2410
2411, 2412, 2413, 2414, 2415, 2416, 2417, 2418, 2419, 2420, 2421, 2422, 2423, 2424, 2425, 2426
2427, 2428, 2429, 2430, 2431, 2432, 2433, 2434, 2435, 2436, 2437, 2438, 2439, 2440, 2441, 2442
2443, 2444, 2445, 2446, 2447, 2448, 2449, 2450, 2451, 2452, 2453, 2454, 2455, 2456, 2457, 2458
2459, 2460, 2461, 2462, 2463, 2464, 2465, 2466, 2467, 2468, 2469, 2470, 2471, 2472, 2473, 2474
2475, 2476, 2477, 2478, 2479, 2480, 2481, 2482, 2483, 2484, 2485, 2486, 2487, 2488, 2489, 2490
2491, 2492, 2493, 2494, 2495, 2496, 2497, 2498, 2499, 2500, 2501, 2502, 2503, 2504, 2505, 2506
2507, 2508, 2509, 2510, 2511, 2512, 2513, 2514, 2515, 2516, 2517, 2518, 2519, 2520, 2521, 2522
2523, 2524, 2525, 2526, 2527, 2528, 2529, 2530, 2531, 2532, 2533, 2534, 2535, 2536, 2537, 2538
2539, 2540, 2541, 2542, 2543, 2544, 2545, 2546, 2547, 2548, 2549, 2550, 2551, 2552, 2553, 2554
2555, 2556, 2557, 2558, 2559, 2560, 2561, 2562, 2563, 2564, 2565, 2566, 2567, 2568, 2569, 2570
2571, 2572, 2573, 2574, 2575, 2576, 2577, 2578, 2579, 2580, 2581, 2582, 2583, 2584, 2585, 2586
2587, 2588, 2589, 2590, 2591, 2592, 2593, 2594, 2595, 2596, 2597, 2598, 2599, 2600, 2601, 2602
2603, 2604, 2605, 2606, 2607, 2608, 2609, 2610, 2611, 2612, 2613, 2614, 2615, 2616, 2617, 2618
2619, 2620, 2621, 2622, 2623, 2624, 2625, 2626, 2627, 2628, 2629, 2630, 2631, 2632, 2633, 2634
2635, 2636, 2637, 2638, 2639, 2640, 2641, 2642, 2643, 2644, 2645, 2646, 2647, 2648, 2649, 2650
2651, 2652, 2653, 2654, 2655, 2656, 2657, 2658, 2659, 2660, 2661, 2662, 2663, 2664, 2665, 2666
2667, 2668, 2669, 2670, 2671, 2672, 2673, 2674, 2675, 2676, 2677, 2678, 2679, 2680, 2681, 2682
2683, 2684, 2685, 2686, 2687, 2688, 2689, 2690, 2691, 2692, 2693, 2694, 2695, 2696, 2697, 2698
2699, 2700, 2701, 2702, 2703, 2704, 2705, 2706, 2707, 2708, 2709, 2710, 2711, 2712, 2713, 2714
2715, 2716, 2717, 2718, 2719, 2720, 2721, 2722, 2723, 2724, 2725, 2726, 2727, 2728, 2729, 2730
2731, 2732, 2733, 2734, 2735, 2736, 2737, 2738, 2739, 2740, 2741, 2742, 2743, 2744, 2745, 2746
2747, 2748, 2749, 2750, 2751, 2752, 2753, 2754, 2755, 2756, 2757, 2758, 2759, 2760, 2761, 2762
2763, 2764, 2765, 2766, 2767, 2768, 2769, 2770, 2771, 2772, 2773, 2774, 2775, 2776, 2777, 2778
2779, 2780, 2781, 2782, 2783, 2784, 2785, 2786, 2787, 2788, 2789, 2790, 2791, 2792, 2793
*NSET, NSET=WARP_SEGMENT_7
2794, 2795, 2796, 2797, 2798, 2799, 2800, 2801, 2802, 2803, 2804, 2805, 2806, 2807, 2808, 2809
2810, 2811, 2812, 2813, 2814, 2815, 2816, 2817, 2818, 2819, 2820, 2821, 2822, 2823, 2824, 2825
2826, 2827, 2828, 2829, 2830, 2831, 2832, 2833, 2834, 2835, 2836, 2837, 2838, 2839, 2840, 2841
2842, 2843, 2844, 2845, 2846, 2847, 2848, 2849, 2850, 2851, 2852, 2853, 2854, 2855, 2856, 2857
2858, 2859, 2860, 2861, 2862, 2863, 2864, 2865, 2866, 2867, 2868, 2869, 2870, 2871, 2872, 2873
2874, 2875, 2876, 2877, 2878, 2879, 2880, 2881, 2882, 2883, 2884, 2885, 2886, 2887, 2888, 2889
2890, 2891, 2892, 2893, 2894, 2895, 2896, 2897, 2898, 2899, 2900, 2901, 2902, 2903, 2904, 2905
2906, 2907, 2908, 2909, 2910, 2911, 2912, 2913, 2914, 2915, 2916, 2917, 2918, 2919, 2920, 2921
2922, 2923, 2924, 2925, 2926, 2927, 2928, 2929, 2930, 2931, 2932, 2933, 2934, 2935, 2936, 2937
2938, 2939, 2940, 2941, 2942, 2943, 2944, 2945, 2946, 2947, 2948, 2949, 2950, 2951, 2952, 2953
2954, 2955, 2956, 2957, 2958, 2959, 2960, 2961, 2962, 2963, 2964, 2965, 2966, 2967, 2968, 2969
2970, 2971, 2972, 2973, 2974, 2975, 2976, 2977, 2978, 2979, 2980, 2981, 2982, 2983, 2984, 2985
2986, 2987, 2988, 2989, 2990, 2991, 2992, 2993, 2994, 2995, 2996, 2997, 2998, 2999, 3000, 3001
3002, 3003, 3004, 3005, 3006, 3007, 3008, 3009, 3010, 3011, 3012, 3013, 3014, 3015, 3016, 3017
3018, 3019, 3020, 3021, 3022, 3023, 3024, 3025, 3026, 3027, 3028, 3029, 3030, 3031, 3032, 3033
3034, 3035, 3036, 3037, 3038, 3039, 3040, 3041, 3042, 3043, 3044, 3045, 3046, 3047, 3048, 3049
3050, 3051, 3052, 3053, 3054, 3055, 3056, 3057, 3058, 3059, 3060, 3061, 3062, 3063, 3064, 3065
3066, 3067, 3068, 3069, 3070, 3071, 3072, 3073, 3074, 3075, 3076, 3077, 3078, 3079, 3080, 3081
3082, 3083, 3084, 3085, 3086, 3087, 3088, 3089, 3090, 3091, 3092, 3093, 3094, 3095, 3096, 3097
3098, 3099, 3100, 3101, 3102, 3103, 3104, 3105, 3106, 3107, 3108, 3109, 3110, 3111, 3112, 3113
3114, 3115, 3116, 3117, 3118, 3119, 3120, 3121, 3122, 3123, 3124, 3125, 3126, 3127, 3128, 3129
3130, 3131, 3132, 3133, 3134, 3135, 3136, 3137, 3138, 3139, 3140, 3141, 3142, 3143, 3144, 3145
3146, 3147, 3148, 3149, 3150, 3151, 3152, 3153, 3154, 3155, 3156, 3157, 3158, 3159, 3160, 3161
3162, 3163, 3164, 3165, 3166, 3167, 3168, 3169, 3170, 3171, 3172, 3173, 3174, 3175, 3176, 3177
3178, 3179, 3180, 3181, 3182, 3183, 3184, 3185, 3186, 3187, 3188, 3189, 3190, 3191, 3192
*NSET, NSET=WARP_SEGMENT_8
3193, 3194, 3195, 3196, 3197, 3198, 3199, 3200, 3201, 3202, 3203, 3204, 3205, 3206, 3207, 3208
3209, 3210, 3211, 3212, 3213, 3214, 3215, 3216, 3217, 3218, 3219, 3220, 3221, 3222, 3223, 3224
3225, 3226, 3227, 3228, 3229, 3230, 3231, 3232, 3233, 3234, 3235, 3236, 3237, 3238, 3239, 3240
3241, 3242, 3243, 3244, 3245, 3246, 3247, 3248, 3249, 3250, 3251, 3252, 3253, 3254, 3255, 3256
3257, 3258, 3259, 3260, 3261, 3262, 3263, 3264, 3265, 3266, 3267, 3268, 3269, 3270, 3271, 3272
3273, 3274, 3275, 3276, 3277, 3278, 3279, 3280, 3281, 3282, 3283, 3284, 3285, 3286, 3287, 3288
3289, 3290, 3291, 3292, 3293, 3294, 3295, 3296, 3297, 3298, 3299, 3300, 3301, 3302, 3303, 3304
3305, 3306, 3307, 3308, 3309, 3310, 3311, 3312, 3313, 3314, 3315, 3316, 3317, 3318, 3319, 3320
3321, 3322, 3323, 3324, 3325, 3326, 3327, 3328, 3329, 3330, 3331, 3332, 3333, 3334, 3335, 3336
3337, 3338, 3339, 3340, 3341, 3342, 3343, 3344, 3345, 3346, 3347, 3348, 3349, 3350, 3351, 3352
3353, 3354, 3355, 3356, 3357, 3358, 3359, 3360, 3361, 3362, 3363, 3364, 3365, 3366, 3367, 3368
3369, 3370, 3371, 3372, 3373, 3374, 3375, 3376, 3377, 3378, 3379, 3380, 3381, 3382, 3383, 3384
3385, 3386, 3387, 3388, 3389, 3390, 3391, 3392, 3393, 3394, 3395, 3396, 3397, 3398, 3399, 3400
3401, 3402, 3403, 3404, 3405, 3406, 3407, 3408, 3409, 3410, 3411, 3412, 3413, 3414, 3415, 3416
3417, 3418, 3419, 3420, 3421, 3422, 3423, 3424, 3425, 3426, 3427, 3428, 3429, 3430, 3431, 3432
3433, 3434, 3435, 3436, 3437, 3438, 3439, 3440, 3441, 3442, 3443, 3444, 3445, 3446, 3447, 3448
3449, 3450, 3451, 3452, 3453, 3454, 3455, 3456, 3457, 3458, 3459, 3460, 3461, 3462, 3463, 3464
3465, 3466, 3467, 3468, 3469, 3470, 3471, 3472, 3473, 3474, 3475, 3476, 3477, 3478, 3479, 3480
3481, 3482, 3483, 3484, 3485, 3486, 3487, 3488, 3489, 3490, 3491, 3492, 3493, 3494, 3495, 3496
3497, 3498, 3499, 3500, 3501, 3502, 3503, 3504, 3505, 3506, 3507, 3508, 3509, 3510, 3511, 3512
3513, 3514, 3515, 3516, 3517, 3518, 3519, 3520, 3521, 3522, 3523, 3524, 3525, 3526, 3527, 3528
3529, 3530, 3531, 3532, 3533, 3534, 3535, 3536, 3537, 3538, 3539, 3540, 3541, 3542, 3543, 3544
3545, 3546, 3547, 3548, 3549, 3550, 3551, 3552, 3553, 3554, 3555, 3556, 3557, 3558, 3559, 3560
3561, 3562, 3563, 3564, 3565, 3566, 3567, 3568, 3569, 3570, 3571, 3572, 3573, 3574, 3575, 3576
3577, 3578, 3579, 3580, 3581, 3582, 3583, 3584, 3585, 3586, 3587, 3588, 3589, 3590, 3591
*NSET, NSET=WARP_SEGMENT_9
3592, 3593, 3594, 3595, 3596, 3597, 3598, 3599, 3600, 3601, 3602, 3603, 3604, 3605, 3606, 3607
3608, 3609, 3610, 3611, 3612, 3613, 3614, 3615, 3616, 3617, 3618, 3619, 3620, 3621, 3622, 3623
3624, 3625, 3626, 3627, 3628, 3629, 3630, 3631, 3632, 3633, 3634, 3635, 3636, 3637, 3638, 3639
3640, 3641, 3642, 3643, 3644, 3645, 3646, 3647, 3648, 3649, 3650, 3651, 3652, 3653, 3654, 3655
3656, 3657, 3658, 3659, 3660, 3661, 3662, 3663, 3664, 3665, 3666, 3667, 3668, 3669, 3670, 3671
3672, 3673, 3674, 3675, 3676, 3677, 3678, 3679, 3680, 3681, 3682, 3683, 3684, 3685, 3686, 3687
3688, 3689, 3690, 3691, 3692, 3693, 3694, 3695, 3696, 3697, 3698, 3699, 3700, 3701, 3702, 3703
3704, 3705, 3706, 3707, 3708, 3709, 3710, 3711, 3712, 3713, 3714, 3715, 3716, 3717, 3718, 3719
3720, 3721, 3722, 3723, 3724, 3725, 3726, 3727, 3728, 3729, 3730, 3731, 3732, 3733, 3734, 3735
3736, 3737, 3738, 3739, 3740, 3741, 3742, 3743, 3744, 3745, 3746, 3747, 3748, 3749, 3750, 3751
3752, 3753, 3754, 3755, 3756, 3757, 3758, 3759, 3760, 3761, 3762, 3763, 3764, 3765, 3766, 3767
3768, 3769, 3770, 3771, 3772, 3773, 3774, 3775, 3776, 3777, 3778, 3779, 3780, 3781, 3782, 3783
3784, 3785, 3786, 3787, 3788, 3789, 3790, 3791, 3792, 3793, 3794, 3795, 3796, 3797, 3798, 3799
3800, 3801, 3802, 3803, 3804, 3805, 3806, 3807, 3808, 3809, 3810, 3811, 3812, 3813, 3814, 3815
3816, 3817, 3818, 3819, 3820, 3821, 3822, 3823, 3824, 3825, 3826, 3827, 3828, 3829, 3830, 3831
3832, 3833, 3834, 3835, 3836, 3837, 3838, 3839, 3840, 3841, 3842, 3843, 3844, 3845, 3846, 3847
3848, 3849, 3850, 3851, 3852, 3853, 3854, 3855, 3856, 3857, 3858, 3859, 3860, 3861, 3862, 3863
3864, 3865, 3866, 3867, 3868, 3869, 3870, 3871, 3872, 3873, 3874, 3875, 3876, 3877, 3878, 3879
3880, 3881, 3882, 3883, 3884, 3885, 3886, 3887, 3888, 3889, 3890, 3891, 3892, 3893, 3894, 3895
3896, 3897, 3898, 3899, 3900, 3901, 3902, 3903, 3904, 3905, 3906, 3907, 3908, 3909, 3910, 3911
3912, 3913, 3914, 3915, 3916, 3917, 3918, 3919, 3920, 3921, 3922, 3923, 3924, 3925, 3926, 3927
3928, 3929, 3930, 3931, 3932, 3933, 3934, 3935, 3936, 3937, 3938, 3939, 3940, 3941, 3942, 3943
3944, 3945, 3946, 3947, 3948, 3949, 3950, 3951, 3952, 3953, 3954, 3955, 3956, 3957, 3958, 3959
3960, 3961, 3962, 3963, 3964, 3965, 3966, 3967, 3968, 3969, 3970, 3971, 3972, 3973, 3974, 3975
3976, 3977, 3978, 3979, 3980, 3981, 3982, 3983, 3984, 3985, 3986, 3987, 3988, 3989, 3990
*NSET, NSET=WEFT_SEGMENT_10
3991, 3992, 3993, 3994, 3995, 3996, 3997, 3998, 3999, 4000, 4001, 4002, 4003, 4004, 4005, 4006
4007, 4008, 4009, 4010, 4011, 4012, 4013, 4014, 4015, 4016, 4017, 4018, 4019, 4020, 4021, 4022
4023, 4024, 4025, 4026, 4027, 4028, 4029, 4030, 4031, 4032, 4033, 4034, 4035, 4036, 4037, 4038
4039, 4040, 4041, 4042, 4043, 4044, 4045, 4046, 4047, 4048, 4049, 4050, 4051, 4052, 4053, 4054
4055, 4056, 4057, 4058, 4059, 4060, 4061, 4062, 4063, 4064, 4065, 4066, 4067, 4068, 4069, 4070
4071, 4072, 4073, 4074, 4075, 4076, 4077, 4078, 4079, 4080, 4081, 4082, 4083, 4084, 4085, 4086
4087, 4088, 4089, 4090, 4091, 4092, 4093, 4094, 4095, 4096, 4097, 4098, 4099, 4100, 4101, 4102
4103, 4104, 4105, 4106, 4107, 4108, 4109, 4110, 4111, 4112, 4113, 4114, 4115, 4116, 4117, 4118
4119, 4120, 4121, 4122, 4123, 4124, 4125, 4126, 4127, 4128, 4129, 4130, 4131, 4132, 4133, 4134
4135, 4136, 4137, 4138, 4139, 4140, 4141, 4142, 4143, 4144, 4145, 4146, 4147, 4148, 4149, 4150
4151, 4152, 4153, 4154, 4155, 4156, 4157, 4158, 4159, 4160, 4161, 4162, 4163, 4164, 4165, 4166
4167, 4168, 4169, 4170, 4171, 4172, 4173, 4174, 4175, 4176, 4177, 4178, 4179, 4180, 4181, 4182
4183, 4184, 4185, 4186, 4187, 4188, 4189, 4190, 4191, 4192, 4193, 4194, 4195, 4196, 4197, 4198
4199, 4200, 4201, 4202, 4203, 4204, 4205, 4206, 4207, 4208, 4209, 4210, 4211, 4212, 4213, 4214
4215, 4216, 4217, 4218, 4219, 4220, 4221, 4222, 4223, 4224, 4225, 4226, 4227, 4228, 4229, 4230
4231, 4232, 4233, 4234, 4235, 4236, 4237, 4238, 4239, 4240, 4241, 4242, 4243, 4244, 4245, 4246
4247, 4248, 4249, 4250, 4251, 4252, 4253, 4254, 4255, 4256, 4257, 4258, 4259, 4260, 4261, 4262
4263, 4264, 4265, 4266, 4267, 4268, 4269, 4270, 4271, 4272, 4273, 4274, 4275, 4276, 4277, 4278
4279, 4280, 4281, 4282, 4283, 4284, 4285, 4286, 4287, 4288, 4289, 4290, 4291, 4292, 4293, 4294
4295, 4296, 4297, 4298, 4299, 4300, 4301, 4302, 4303, 4304, 4305, 4306, 4307, 4308, 4309, 4310
4311, 4312, 4313, 4314, 4315, 4316, 4317, 4318, 4319, 4320, 4321, 4322, 4323, 4324, 4325, 4326
4327, 4328, 4329, 4330, 4331, 4332, 4333, 4334, 4335, 4336, 4337, 4338, 4339, 4340, 4341, 4342
4343, 4344, 4345, 4346, 4347, 4348, 4349, 4350, 4351, 4352, 4353, 4354, 4355, 4356, 4357, 4358
4359, 4360, 4361, 4362, 4363, 4364, 4365, 4366, 4367, 4368, 4369, 4370, 4371, 4372, 4373, 4374
4375, 4376, 4377, 4378, 4379, 4380, 4381, 4382, 4383, 4384, 4385, 4386, 4387, 4388, 4389
*NSET, NSET=WEFT_SEGMENT_11
4390, 4391, 4392, 4393, 4394, 4395, 4396, 4397, 4398, 4399, 4400, 4401, 4402, 4403, 4404, 4405
4406, 4407, 4408, 4409, 4410, 4411, 4412, 4413, 4414, 4415, 4416, 4417, 4418, 4419, 4420, 4421
4422, 4423, 4424, 4425, 4426, 4427, 4428, 4429, 4430, 4431, 4432, 4433, 4434, 4435, 4436, 4437
4438, 4439, 4440, 4441, 4442, 4443, 4444, 4445, 4446, 4447, 4448, 4449, 4450, 4451, 4452, 4453
4454, 4455, 4456, 4457, 4458, 4459, 4460, 4461, 4462, 4463, 4464, 4465, 4466, 4467, 4468, 4469
4470, 4471, 4472, 4473, 4474, 4475, 4476, 4477, 4478, 4479, 4480, 4481, 4482, 4483, 4484, 4485
4486, 4487, 4488, 4489, 4490, 4491, 4492, 4493, 4494, 4495, 4496, 4497, 4498, 4499, 4500, 4501
4502, 4503, 4504, 4505, 4506, 4507, 4508, 4509, 4510, 4511, 4512, 4513, 4514, 4515, 4516, 4517
4518, 4519, 4520, 4521, 4522, 4523, 4524, 4525, 4526, 4527, 4528, 4529, 4530, 4531, 4532, 4533
4534, 4535, 4536, 4537, 4538, 4539, 4540, 4541, 4542, 4543, 4544, 4545, 4546, 4547, 4548, 4549
4550, 4551, 4552, 4553, 4554, 4555, 4556, 4557, 4558, 4559, 4560, 4561, 4562, 4563, 4564, 4565
4566, 4567, 4568, 4569, 4570, 4571, 4572, 4573, 4574, 4575, 4576, 4577, 4578, 4579, 4580, 4581
4582, 4583, 4584, 4585, 4586, 4587, 4588, 4589, 4590, 4591, 4592, 4593, 4594, 4595, 4596, 4597
4598, 4599, 4600, 4601, 4602, 4603, 4604, 4605, 4606, 4607, 4608, 4609, 4610, 4611, 4612, 4613
4614, 4615, 4616, 4617, 4618, 4619, 4620, 4621, 4622, 4623, 4624, 4625, 4626, 4627, 4628, 4629
4630, 4631, 4632, 4633, 4634, 4635, 4636, 4637, 4638, 4639, 4640, 4641, 4642, 4643, 4644, 4645
4646, 4647, 4648, 4649, 4650, 4651, 4652, 4653, 4654, 4655, 4656, 4657, 4658, 4659, 4660, 4661
4662, 4663, 4664, 4665, 4666, 4667, 4668, 4669, 4670, 4671, 4672, 4673, 4674, 4675, 4676, 4677
4678, 4679, 4680, 4681, 4682, 4683, 4684, 4685, 4686, 4687, 4688, 4689, 4690, 4691, 4692, 4693
4694, 4695, 4696, 4697, 4698, 4699, 4700, 4701, 4702, 4703, 4704, 4705, 4706, 4707, 4708, 4709
4710, 4711, 4712, 4713, 4714, 4715, 4716, 4717, 4718, 4719, 4720, 4721, 4722, 4723, 4724, 4725
4726, 4727, 4728, 4729, 4730, 4731, 4732, 4733, 4734, 4735, 4736, 4737, 4738, 4739, 4740, 4741
4742, 4743, 4744, 4745, 4746, 4747, 4748, 4749, 4750, 4751, 4752, 4753, 4754, 4755, 4756, 4757
4758, 4759, 4760, 4761, 4762, 4763, 4764, 4765, 4766, 4767, 4768, 4769, 4770, 4771, 4772, 4773
4774, 4775, 4776, 4777, 4778, 4779, 4780, 4781, 4782, 4783, 4784, 4785, 4786, 4787, 4788
*NSET, NSET=WEFT_SEGMENT_12
4789, 4790, 4791, 4792, 4793, 4794, 4795, 4796, 4797, 4798, 4799, 4800, 4801, 4802, 4803, 4804
4805, 4806, 4807, 4808, 4809, 4810, 4811, 4812, 4813, 4814, 4815, 4816, 4817, 4818, 4819, 4820
4821, 4822, 4823, 4824, 4825, 4826, 4827, 4828, 4829, 4830, 4831, 4832, 4833, 4834, 4835, 4836
4837, 4838, 4839, 4840, 4841, 4842, 4843, 4844, 4845, 4846, 4847, 4848, 4849, 4850, 4851, 4852
4853, 4854, 4855, 4856, 4857, 4858, 4859, 4860, 4861, 4862, 4863, 4864, 4865, 4866, 4867, 4868
4869, 4870, 4871, 4872, 4873, 4874, 4875, 4876, 4877, 4878, 4879, 4880, 4881, 4882, 4883, 4884
4885, 4886, 4887, 4888, 4889, 4890, 4891, 4892, 4893, 4894, 4895, 4896, 4897, 4898, 4899, 4900
4901, 4902, 4903, 4904, 4905, 4906, 4907, 4908, 4909, 4910, 4911, 4912, 4913, 4914, 4915, 4916
4917, 4918, 4919, 4920, 4921, 4922, 4923, 4924, 4925, 4926, 4927, 4928, 4929, 4930, 4931, 4932
4933, 4934, 4935, 4936, 4937, 4938, 4939, 4940, 4941, 4942, 4943, 4944, 4945, 4946, 4947, 4948
4949, 4950, 4951, 4952, 4953, 4954, 4955, 4956, 4957, 4958, 4959, 4960, 4961, 4962, 4963, 4964
4965, 4966, 4967, 4968, 4969, 4970, 4971, 4972, 4973, 4974, 4975, 4976, 4977, 4978, 4979, 4980
4981, 4982, 4983, 4984, 4985, 4986, 4987, 4988, 4989, 4990, 4991, 4992, 4993, 4994, 4995, 4996
4997, 4998, 4999, 5000, 5001, 5002, 5003, 5004, 5005, 5006, 5007, 5008, 5009, 5010, 5011, 5012
5013, 5014, 5015, 5016, 5017, 5018, 5019, 5020, 5021, 5022, 5023, 5024, 5025, 5026, 5027, 5028
5029, 5030, 5031, 5032, 5033, 5034, 5035, 5036, 5037, 5038, 5039, 5040, 5041, 5042, 5043, 5044
5045, 5046, 5047, 5048, 5049, 5050, 5051, 5052, 5053, 5054, 5055, 5056, 5057, 5058, 5059, 5060
5061, 5062, 5063, 5064, 5065, 5066, 5067, 5068, 5069, 5070, 5071, 5072, 5073, 5074, 5075, 5076
5077, 5078, 5079, 5080, 5081, 5082, 5083, 5084, 5085, 5086, 5087, 5088, 5089, 5090, 5091, 5092
5093, 5094, 5095, 5096, 5097, 5098, 5099, 5100, 5101, 5102, 5103, 5104, 5105, 5106, 5107, 5108
5109, 5110, 5111, 5112, 5113, 5114, 5115, 5116, 5117, 5118, 5119, 5120, 5121, 5122, 5123, 5124
5125, 5126, 5127, 5128, 5129, 5130, 5131, 5132, 5133, 5134, 5135, 5136, 5137, 5138, 5139, 5140
5141, 5142, 5143, 5144, 5145, 5146, 5147, 5148, 5149, 5150, 5151, 5152, 5153, 5154, 5155, 5156
5157, 5158, 5159, 5160, 5161, 5162, 5163, 5164, 5165, 5166, 5167, 5168, 5169, 5170, 5171, 5172
5173, 5174, 5175, 5176, 5177, 5178, 5179, 5180, 5181, 5182, 5183, 5184, 5185, 5186, 5187
*NSET, NSET=WEFT_SEGMENT_13
5188, 5189, 5190, 5191, 5192, 5193, 5194, 5195, 5196, 5197, 5198, 5199, 5200, 5201, 5202, 5203
5204, 5205, 5206, 5207, 5208, 5209, 5210, 5211, 5212, 5213, 5214, 5215, 5216, 5217, 5218, 5219
5220, 5221, 5222, 5223, 5224, 5225, 5226, 5227, 5228, 5229, 5230, 5231, 5232, 5233, 5234, 5235
5236, 5237, 5238, 5239, 5240, 5241, 5242, 5243, 5244, 5245, 5246, 5247, 5248, 5249, 5250, 5251
5252, 5253, 5254, 5255, 5256, 5257, 5258, 5259, 5260, 5261, 5262, 5263, 5264, 5265, 5266, 5267
5268, 5269, 5270, 5271, 5272, 5273, 5274, 5275, 5276, 5277, 5278, 5279, 5280, 5281, 5282, 5283
5284, 5285, 5286, 5287, 5288, 5289, 5290, 5291, 5292, 5293, 5294, 5295, 5296, 5297, 5298, 5299
5300, 5301, 5302, 5303, 5304, 5305, 5306, 5307, 5308, 5309, 5310, 5311, 5312, 5313, 5314, 5315
5316, 5317, 5318, 5319, 5320, 5321, 5322, 5323, 5324, 5325, 5326, 5327, 5328, 5329, 5330, 5331
5332, 5333, 5334, 5335, 5336, 5337, 5338, 5339, 5340, 5341, 5342, 5343, 5344, 5345, 5346, 5347
5348, 5349, 5350, 5351, 5352, 5353, 5354, 5355, 5356, 5357, 5358, 5359, 5360, 5361, 5362, 5363
5364, 5365, 5366, 5367, 5368, 5369, 5370, 5371, 5372, 5373, 5374, 5375, 5376, 5377, 5378, 5379
5380, 5381, 5382, 5383, 5384, 5385, 5386, 5387, 5388, 5389, 5390, 5391, 5392, 5393, 5394, 5395
5396, 5397, 5398, 5399, 5400, 5401, 5402, 5403, 5404, 5405, 5406, 5407, 5408, 5409, 5410, 5411
5412, 5413, 5414, 5415, 5416, 5417, 5418, 5419, 5420, 5421, 5422, 5423, 5424, 5425, 5426, 5427
5428, 5429, 5430, 5431, 5432, 5433, 5434, 5435, 5436, 5437, 5438, 5439, 5440, 5441, 5442, 5443
5444, 5445, 5446, 5447, 5448, 5449, 5450, 5451, 5452, 5453, 5454, 5455, 5456, 5457, 5458, 5459
5460, 5461, 5462, 5463, 5464, 5465, 5466, 5467, 5468, 5469, 5470, 5471, 5472, 5473, 5474, 5475
5476, 5477, 5478, 5479, 5480, 5481, 5482, 5483, 5484, 5485, 5486, 5487, 5488, 5489, 5490, 5491
5492, 5493, 5494, 5495, 5496, 5497, 5498, 5499, 5500, 5501, 5502, 5503, 5504, 5505, 5506, 5507
5508, 5509, 5510, 5511, 5512, 5513, 5514, 5515, 5516, 5517, 5518, 5519, 5520, 5521, 5522, 5523
5524, 5525, 5526, 5527, 5528, 5529, 5530, 5531, 5532, 5533, 5534, 5535, 5536, 5537, 5538, 5539
5540, 5541, 5542, 5543, 5544, 5545, 5546, 5547, 5548, 5549, 5550, 5551, 5552, 5553, 5554, 5555
5556, 5557, 5558, 5559, 5560, 5561, 5562, 5563, 5564, 5565, 5566, 5567, 5568, 5569, 5570, 5571
5572, 5573, 5574, 5575, 5576, 5577, 5578, 5579, 5580, 5581, 5582, 5583, 5584, 5585, 5586
*NSET, NSET=WEFT_SEGMENT_14
5587, 5588, 5589, 5590, 5591, 5592, 5593, 5594, 5595, 5596, 5597, 5598, 5599, 5600, 5601, 5602
5603, 5604, 5605, 5606, 5607, 5608, 5609, 5610, 5611, 5612, 5613, 5614, 5615, 5616, 5617, 5618
5619, 5620, 5621, 5622, 5623, 5624, 5625, 5626, 5627, 5628, 5629, 5630, 5631, 5632, 5633, 5634
5635, 5636, 5637, 5638, 5639, 5640, 5641, 5642, 5643, 5644, 5645, 5646, 5647, 5648, 5649, 5650
5651, 5652, 5653, 5654, 5655, 5656, 5657, 5658, 5659, 5660, 5661, 5662, 5663, 5664, 5665, 5666
5667, 5668, 5669, 5670, 5671, 5672, 5673, 5674, 5675, 5676, 5677, 5678, 5679, 5680, 5681, 5682
5683, 5684, 5685, 5686, 5687, 5688, 5689, 5690, 5691, 5692, 5693, 5694, 5695, 5696, 5697, 5698
5699, 5700, 5701, 5702, 5703, 5704, 5705, 5706, 5707, 5708, 5709, 5710, 5711, 5712, 5713, 5714
5715, 5716, 5717, 5718, 5719, 5720, 5721, 5722, 5723, 5724, 5725, 5726, 5727, 5728, 5729, 5730
5731, 5732, 5733, 5734, 5735, 5736, 5737, 5738, 5739, 5740, 5741, 5742, 5743, 5744, 5745, 5746
5747, 5748, 5749, 5750, 5751, 5752, 5753, 5754, 5755, 5756, 5757, 5758, 5759, 5760, 5761, 5762
5763, 5764, 5765, 5766, 5767, 5768, 5769, 5770, 5771, 5772, 5773, 5774, 5775, 5776, 5777, 5778
5779, 5780, 5781, 5782, 5783, 5784, 5785, 5786, 5787, 5788, 5789, 5790, 5791, 5792, 5793, 5794
5795, 5796, 5797, 5798, 5799, 5800, 5801, 5802, 5803, 5804, 5805, 5806, 5807, 5808, 5809, 5810
5811, 5812, 5813, 5814, 5815, 5816, 5817, 5818, 5819, 5820, 5821, 5822, 5823, 5824, 5825, 5826
5827, 5828, 5829, 5830, 5831, 5832, 5833, 5834, 5835, 5836, 5837, 5838, 5839, 5840, 5841, 5842
5843, 5844, 5845, 5846, 5847, 5848, 5849, 5850, 5851, 5852, 5853, 5854, 5855, 5856, 5857, 5858
5859, 5860, 5861, 5862, 5863, 5864, 5865, 5866, 5867, 5868, 5869, 5870, 5871, 5872, 5873, 5874
5875, 5876, 5877, 5878, 5879, 5880, 5881, 5882, 5883, 5884, 5885, 5886, 5887, 5888, 5889, 5890
5891, 5892, 5893, 5894, 5895, 5896, 5897, 5898, 5899, 5900, 5901, 5902, 5903, 5904, 5905, 5906
5907, 5908, 5909, 5910, 5911, 5912, 5913, 5914, 5915, 5916, 5917, 5918, 5919, 5920, 5921, 5922
5923, 5924, 5925, 5926, 5927, 5928, 5929, 5930, 5931, 5932, 5933, 5934, 5935, 5936, 5937, 5938
5939, 5940, 5941, 5942, 5943, 5944, 5945, 5946, 5947, 5948, 5949, 5950, 5951, 5952, 5953, 5954
5955, 5956, 5957, 5958, 5959, 5960, 5961, 5962, 5963, 5964, 5965, 5966, 5967, 5968, 5969, 5970
5971, 5972, 5973, 5974, 5975, 5976, 5977, 5978, 5979, 5980, 5981, 5982, 5983, 5984, 5985
*NSET, NSET=WEFT_SEGMENT_15
5986, 5987, 5988, 5989, 5990, 5991, 5992, 5993, 5994, 5995, 5996, 5997, 5998, 5999, 6000, 6001
6002, 6003, 6004, 6005, 6006, 6007, 6008, 6009, 6010, 6011, 6012, 6013, 6014, 6015, 6016, 6017
6018, 6019, 6020, 6021, 6022, 6023, 6024, 6025, 6026, 6027, 6028, 6029, 6030, 6031, 6032, 6033
6034, 6035, 6036, 6037, 6038, 6039, 6040, 6041, 6042, 6043, 6044, 6045, 6046, 6047, 6048, 6049
6050, 6051, 6052, 6053, 6054, 6055, 6056, 6057, 6058, 6059, 6060, 6061, 6062, 6063, 6064, 6065
6066, 6067, 6068, 6069, 6070, 6071, 6072, 6073, 6074, 6075, 6076, 6077, 6078, 6079, 6080, 6081
6082, 6083, 6084, 6085, 6086, 6087, 6088, 6089, 6090, 6091, 6092, 6093, 6094, 6095, 6096, 6097
6098, 6099, 6100, 6101, 6102, 6103, 6104, 6105, 6106, 6107, 6108, 6109, 6110, 6111, 6112, 6113
6114, 6115, 6116, 6117, 6118, 6119, 6120, 6121, 6122, 6123, 6124, 6125, 6126, 6127, 6128, 6129
6130, 6131, 6132, 6133, 6134, 6135, 6136, 6137, 6138, 6139, 6140, 6141, 6142, 6143, 6144, 6145
6146, 6147, 6148, 6149, 6150, 6151, 6152, 6153, 6154, 6155, 6156, 6157, 6158, 6159, 6160, 6161
6162, 6163, 6164, 6165, 6166, 6167, 6168, 6169, 6170, 6171, 6172, 6173, 6174, 6175, 6176, 6177
6178, 6179, 6180, 6181, 6182, 6183, 6184, 6185, 6186, 6187, 6188, 6189, 6190, 6191, 6192, 6193
6194, 6195, 6196, 6197, 6198, 6199, 6200, 6201, 6202, 6203, 6204, 6205, 6206, 6207, 6208, 6209
6210, 6211, 6212, 6213, 6214, 6215, 6216, 6217, 6218, 6219, 6220, 6221, 6222, 6223, 6224, 6225
6226, 6227, 6228, 6229, 6230, 6231, 6232, 6233, 6234, 6235, 6236, 6237, 6238, 6239, 6240, 6241
6242, 6243, 6244, 6245, 6246, 6247, 6248, 6249, 6250, 6251, 6252, 6253, 6254, 6255, 6256, 6257
6258, 6259, 6260, 6261, 6262, 6263, 6264, 6265, 6266, 6267, 6268, 6269, 6270, 6271, 6272, 6273
6274, 6275, 6276, 6277, 6278, 6279, 6280, 6281, 6282, 6283, 6284, 6285, 6286, 6287, 6288, 6289
6290, 6291, 6292, 6293, 6294, 6295, 6296, 6297, 6298, 6299, 6300, 6301, 6302, 6303, 6304, 6305
6306, 6307, 6308, 6309, 6310, 6311, 6312, 6313, 6314, 6315, 6316, 6317, 6318, 6319, 6320, 6321
6322, 6323, 6324, 6325, 6326, 6327, 6328, 6329, 6330, 6331, 6332, 6333, 6334, 6335, 6336, 6337
6338, 6339, 6340, 6341, 6342, 6343, 6344, 6345, 6346, 6347, 6348, 6349, 6350, 6351, 6352, 6353
6354, 6355, 6356, 6357, 6358, 6359, 6360, 6361, 6362, 6363, 6364, 6365, 6366, 6367, 6368, 6369
6370, 6371, 6372, 6373, 6374, 6375, 6376, 6377, 6378, 6379, 6380, 6381, 6382, 6383, 6384
*NSET, NSET=WEFT_SEGMENT_16
6385, 6386, 6387, 6388, 6389, 6390, 6391, 6392, 6393, 6394, 6395, 6396, 6397, 6398, 6399, 6400
6401, 6402, 6403, 6404, 6405, 6406, 6407, 6408, 6409, 6410, 6411, 6412, 6413, 6414, 6415, 6416
6417, 6418, 6419, 6420, 6421, 6422, 6423, 6424, 6425, 6426, 6427, 6428, 6429, 6430, 6431, 6432
6433, 6434, 6435, 6436, 6437, 6438, 6439, 6440, 6441, 6442, 6443, 6444, 6445, 6446, 6447, 6448
6449, 6450, 6451, 6452, 6453, 6454, 6455, 6456, 6457, 6458, 6459, 6460, 6461, 6462, 6463, 6464
6465, 6466, 6467, 6468, 6469, 6470, 6471, 6472, 6473, 6474, 6475, 6476, 6477, 6478, 6479, 6480
6481, 6482, 6483, 6484, 6485, 6486, 6487, 6488, 6489, 6490, 6491, 6492, 6493, 6494, 6495, 6496
6497, 6498, 6499, 6500, 6501, 6502, 6503, 6504, 6505, 6506, 6507, 6508, 6509, 6510, 6511, 6512
6513, 6514, 6515, 6516, 6517, 6518, 6519, 6520, 6521, 6522, 6523, 6524, 6525, 6526, 6527, 6528
6529, 6530, 6531, 6532, 6533, 6534, 6535, 6536, 6537, 6538, 6539, 6540, 6541, 6542, 6543, 6544
6545, 6546, 6547, 6548, 6549, 6550, 6551, 6552, 6553, 6554, 6555, 6556, 6557, 6558, 6559, 6560
6561, 6562, 6563, 6564, 6565, 6566, 6567, 6568, 6569, 6570, 6571, 6572, 6573, 6574, 6575, 6576
6577, 6578, 6579, 6580, 6581, 6582, 6583, 6584, 6585, 6586, 6587, 6588, 6589, 6590, 6591, 6592
6593, 6594, 6595, 6596, 6597, 6598, 6599, 6600, 6601, 6602, 6603, 6604, 6605, 6606, 6607, 6608
6609, 6610, 6611, 6612, 6613, 6614, 6615, 6616, 6617, 6618, 6619, 6620, 6621, 6622, 6623, 6624
6625, 6626, 6627, 6628, 6629, 6630, 6631, 6632, 6633, 6634, 6635, 6636, 6637, 6638, 6639, 6640
6641, 6642, 6643, 6644, 6645, 6646, 6647, 6648, 6649, 6650, 6651, 6652, 6653, 6654, 6655, 6656
6657, 6658, 6659, 6660, 6661, 6662, 6663, 6664, 6665, 6666, 6667, 6668, 6669, 6670, 6671, 6672
6673, 6674, 6675, 6676, 6677, 6678, 6679, 6680, 6681, 6682, 6683, 6684, 6685, 6686, 6687, 6688
6689, 6690, 6691, 6692, 6693, 6694, 6695, 6696, 6697, 6698, 6699, 6700, 6701, 6702, 6703, 6704
6705, 6706, 6707, 6708, 6709, 6710, 6711, 6712, 6713, 6714, 6715, 6716, 6717, 6718, 6719, 6720
6721, 6722, 6723, 6724, 6725, 6726, 6727, 6728, 6729, 6730, 6731, 6732, 6733, 6734, 6735, 6736
6737, 6738, 6739, 6740, 6741, 6742, 6743, 6744, 6745, 6746, 6747, 6748, 6749, 6750, 6751, 6752
6753, 6754, 6755, 6756, 6757, 6758, 6759, 6760, 6761, 6762, 6763, 6764, 6765, 6766, 6767, 6768
6769, 6770, 6771, 6772, 6773, 6774, 6775, 6776, 6777, 6778, 6779, 6780, 6781, 6782, 6783
*NSET, NSET=WEFT_SEGMENT_17
6784, 6785, 6786, 6787, 6788, 6789, 6790, 6791, 6792, 6793, 6794, 6795, 6796, 6797, 6798, 6799
6800, 6801, 6802, 6803, 6804, 6805, 6806, 6807, 6808, 6809, 6810, 6811, 6812, 6813, 6814, 6815
6816, 6817, 6818, 6819, 6820, 6821, 6822, 6823, 6824, 6825, 6826, 6827, 6828, 6829, 6830, 6831
6832, 6833, 6834, 6835, 6836, 6837, 6838, 6839, 6840, 6841, 6842, 6843, 6844, 6845, 6846, 6847
6848, 6849, 6850, 6851, 6852, 6853, 6854, 6855, 6856, 6857, 6858, 6859, 6860, 6861, 6862, 6863
6864, 6865, 6866, 6867, 6868, 6869, 6870, 6871, 6872, 6873, 6874, 6875, 6876, 6877, 6878, 6879
6880, 6881, 6882, 6883, 6884, 6885, 6886, 6887, 6888, 6889, 6890, 6891, 6892, 6893, 6894, 6895
6896, 6897, 6898, 6899, 6900, 6901, 6902, 6903, 6904, 6905, 6906, 6907, 6908, 6909, 6910, 6911
6912, 6913, 6914, 6915, 6916, 6917, 6918, 6919, 6920, 6921, 6922, 6923, 6924, 6925, 6926, 6927
6928, 6929, 6930, 6931, 6932, 6933, 6934, 6935, 6936, 6937, 6938, 6939, 6940, 6941, 6942, 6943
6944, 6945, 6946, 6947, 6948, 6949, 6950, 6951, 6952, 6953, 6954, 6955, 6956, 6957, 6958, 6959
6960, 6961, 6962, 6963, 6964, 6965, 6966, 6967, 6968, 6969, 6970, 6971, 6972, 6973, 6974, 6975
6976, 6977, 6978, 6979, 6980, 6981, 6982, 6983, 6984, 6985, 6986, 6987, 6988, 6989, 6990, 6991
6992, 6993, 6994, 6995, 6996, 6997, 6998, 6999, 7000, 7001, 7002, 7003, 7004, 7005, 7006, 7007
7008, 7009, 7010, 7011, 7012, 7013, 7014, 7015, 7016, 7017, 7018, 7019, 7020, 7021, 7022, 7023
7024, 7025, 7026, 7027, 7028, 7029, 7030, 7031, 7032, 7033, 7034, 7035, 7036, 7037, 7038, 7039
7040, 7041, 7042, 7043, 7044, 7045, 7046, 7047, 7048, 7049, 7050, 7051, 7052, 7053, 7054, 7055
7056, 7057, 7058, 7059, 7060, 7061, 7062, 7063, 7064, 7065, 7066, 7067, 7068, 7069, 7070, 7071
7072, 7073, 7074, 7075, 7076, 7077, 7078, 7079, 7080, 7081, 7082, 7083, 7084, 7085, 7086, 7087
7088, 7089, 7090, 7091, 7092, 7093, 7094, 7095, 7096, 7097, 7098, 7099, 7100, 7101, 7102, 7103
7104, 7105, 7106, 7107, 7108, 7109, 7110, 7111, 7112, 7113, 7114, 7115, 7116, 7117, 7118, 7119
7120, 7121, 7122, 7123, 7124, 7125, 7126, 7127, 7128, 7129, 7130, 7131, 7132, 7133, 7134, 7135
7136, 7137, 7138, 7139, 7140, 7141, 7142, 7143, 7144, 7145, 7146, 7147, 7148, 7149, 7150, 7151
7152, 7153, 7154, 7155, 7156, 7157, 7158, 7159, 7160, 7161, 7162, 7163, 7164, 7165, 7166, 7167
7168, 7169, 7170, 7171, 7172, 7173, 7174, 7175, 7176, 7177, 7178, 7179, 7180, 7181, 7182
*NSET, NSET=WEFT_SEGMENT_18
7183, 7184, 7185, 7186, 7187, 7188, 7189, 7190, 7191, 7192, 7193, 7194, 7195, 7196, 7197, 7198
7199, 7200, 7201, 7202, 7203, 7204, 7205, 7206, 7207, 7208, 7209, 7210, 7211, 7212, 7213, 7214
7215, 7216, 7217, 7218, 7219, 7220, 7221, 7222, 7223, 7224, 7225, 7226, 7227, 7228, 7229, 7230
7231, 7232, 7233, 7234, 7235, 7236, 7237, 7238, 7239, 7240, 7241, 7242, 7243, 7244, 7245, 7246
7247, 7248, 7249, 7250, 7251, 7252, 7253, 7254, 7255, 7256, 7257, 7258, 7259, 7260, 7261, 7262
7263, 7264, 7265, 7266, 7267, 7268, 7269, 7270, 7271, 7272, 7273, 7274, 7275, 7276, 7277, 7278
7279, 7280, 7281, 7282, 7283, 7284, 7285, 7286, 7287, 7288, 7289, 7290, 7291, 7292, 7293, 7294
7295, 7296, 7297, 7298, 7299, 7300, 7301, 7302, 7303, 7304, 7305, 7306, 7307, 7308, 7309, 7310
7311, 7312, 7313, 7314, 7315, 7316, 7317, 7318, 7319, 7320, 7321, 7322, 7323, 7324, 7325, 7326
7327, 7328, 7329, 7330, 7331, 7332, 7333, 7334, 7335, 7336, 7337, 7338, 7339, 7340, 7341, 7342
7343, 7344, 7345, 7346, 7347, 7348, 7349, 7350, 7351, 7352, 7353, 7354, 7355, 7356, 7357, 7358
7359, 7360, 7361, 7362, 7363, 7364, 7365, 7366, 7367, 7368, 7369, 7370, 7371, 7372, 7373, 7374
7375, 7376, 7377, 7378, 7379, 7380, 7381, 7382, 7383, 7384, 7385, 7386, 7387, 7388, 7389, 7390
7391, 7392, 7393, 7394, 7395, 7396, 7397, 7398, 7399, 7400, 7401, 7402, 7403, 7404, 7405, 7406
7407, 7408, 7409, 7410, 7411, 7412, 7413, 7414, 7415, 7416, 7417, 7418, 7419, 7420, 7421, 7422
7423, 7424, 7425, 7426, 7427, 7428, 7429, 7430, 7431, 7432, 7433, 7434, 7435, 7436, 7437, 7438
7439, 7440, 7441, 7442, 7443, 7444, 7445, 7446, 7447, 7448, 7449, 7450, 7451, 7452, 7453, 7454
7455, 7456, 7457, 7458, 7459, 7460, 7461, 7462, 7463, 7464, 7465, 7466, 7467, 7468, 7469, 7470
7471, 7472, 7473, 7474, 7475, 7476, 7477, 7478, 7479, 7480, 7481, 7482, 7483, 7484, 7485, 7486
7487, 7488, 7489, 7490, 7491, 7492, 7493, 7494, 7495, 7496, 7497, 7498, 7499, 7500, 7501, 7502
7503, 7504, 7505, 7506, 7507, 7508, 7509, 7510, 7511, 7512, 7513, 7514, 7515, 7516, 7517, 7518
7519, 7520, 7521, 7522, 7523, 7524, 7525, 7526, 7527, 7528, 7529, 7530, 7531, 7532, 7533, 7534
7535, 7536, 7537, 7538, 7539, 7540, 7541, 7542, 7543, 7544, 7545, 7546, 7547, 7548, 7549, 7550
7551, 7552, 7553, 7554, 7555, 7556, 7557, 7558, 7559, 7560, 7561, 7562, 7563, 7564, 7565, 7566
7567, 7568, 7569, 7570, 7571, 7572, 7573, 7574, 7575, 7576, 7577, 7578, 7579, 7580, 7581
*NSET, NSET=WEFT_SEGMENT_19
7582, 7583, 7584, 7585, 7586, 7587, 7588, 7589, 7590, 7591, 7592, 7593, 7594, 7595, 7596, 7597
7598, 7599, 7600, 7601, 7602, 7603, 7604, 7605, 7606, 7607, 7608, 7609, 7610, 7611, 7612, 7613
7614, 7615, 7616, 7617, 7618, 7619, 7620, 7621, 7622, 7623, 7624, 7625, 7626, 7627, 7628, 7629
7630, 7631, 7632, 7633, 7634, 7635, 7636, 7637, 7638, 7639, 7640, 7641, 7642, 7643, 7644, 7645
7646, 7647, 7648, 7649, 7650, 7651, 7652, 7653, 7654, 7655, 7656, 7657, 7658, 7659, 7660, 7661
7662, 7663, 7664, 7665, 7666, 7667, 7668, 7669, 7670, 7671, 7672, 7673, 7674, 7675, 7676, 7677
7678, 7679, 7680, 7681, 7682, 7683, 7684, 7685, 7686, 7687, 7688, 7689, 7690, 7691, 7692, 7693
7694, 7695, 7696, 7697, 7698, 7699, 7700, 7701, 7702, 7703, 7704, 7705, 7706, 7707, 7708, 7709
7710, 7711, 7712, 7713, 7714, 7715, 7716, 7717, 7718, 7719, 7720, 7721, 7722, 7723, 7724, 7725
7726, 7727, 7728, 7729, 7730, 7731, 7732, 7733, 7734, 7735, 7736, 7737, 7738, 7739, 7740, 7741
7742, 7743, 7744, 7745, 7746, 7747, 7748, 7749, 7750, 7751, 7752, 7753, 7754, 7755, 7756, 7757
7758, 7759, 7760, 7761, 7762, 7763, 7764, 7765, 7766, 7767, 7768, 7769, 7770, 7771, 7772, 7773
7774, 7775, 7776, 7777, 7778, 7779, 7780, 7781, 7782, 7783, 7784, 7785, 7786, 7787, 7788, 7789
7790, 7791, 7792, 7793, 7794, 7795, 7796, 7797, 7798, 7799, 7800, 7801, 7802, 7803, 7804, 7805
7806, 7807, 7808, 7809, 7810, 7811, 7812, 7813, 7814, 7815, 7816, 7817, 7818, 7819, 7820, 7821
7822, 7823, 7824, 7825, 7826, 7827, 7828, 7829, 7830, 7831, 7832, 7833, 7834, 7835, 7836, 7837
7838, 7839, 7840, 7841, 7842, 7843, 7844, 7845, 7846, 7847, 7848, 7849, 7850, 7851, 7852, 7853
7854, 7855, 7856, 7857, 7858, 7859, 7860, 7861, 7862, 7863, 7864, 7865, 7866, 7867, 7868, 7869
7870, 7871, 7872, 7873, 7874, 7875, 7876, 7877, 7878, 7879, 7880, 7881, 7882, 7883, 7884, 7885
7886, 7887, 7888, 7889, 7890, 7891, 7892, 7893, 7894, 7895, 7896, 7897, 7898, 7899, 7900, 7901
7902, 7903, 7904, 7905, 7906, 7907, 7908, 7909, 7910, 7911, 7912, 7913, 7914, 7915, 7916, 7917
7918, 7919, 7920, 7921, 7922, 7923, 7924, 7925, 7926, 7927, 7928, 7929, 7930, 7931, 7932, 7933
7934, 7935, 7936, 7937, 7938, 7939, 7940, 7941, 7942, 7943, 7944, 7945, 7946, 7947, 7948, 7949
7950, 7951, 7952, 7953, 7954, 7955, 7956, 7957, 7958, 7959, 7960, 7961, 7962, 7963, 7964, 7965
7966, 7967, 7968, 7969, 7970, 7971, 7972, 7973, 7974, 7975, 7976, 7977, 7978, 7979, 7980
*ELEMENT, TYPE=C3D8R
1, 9, 2, 1, 8, 30, 23, 22, 29
2, 16, 9, 8, 15, 37, 30, 29, 36
3, 10, 3, 2, 9, 31, 24, 23, 30
4, 17, 10, 9, 16, 38, 31, 30, 37
5, 11, 4, 3, 10, 32, 25, 24, 31
6, 18, 11, 10, 17, 39, 32, 31, 38
7, 12, 5, 4, 11, 33, 26, 25, 32
8, 19, 12, 11, 18, 40, 33, 32, 39
9, 13, 6, 5, 12, 34, 27, 26, 33
10, 20, 13, 12, 19, 41, 34, 33, 40
11, 14, 7, 6, 13, 35, 28, 27, 34
12, 21, 14, 13, 20, 42, 35, 34, 41
13, 30, 23, 22, 29, 51, 44, 43, 50
14, 37, 30, 29, 36, 58, 51, 50, 57
15, 31, 24, 23, 30, 52, 45, 44, 51
16, 38, 31, 30, 37, 59, 52, 51, 58
17, 32, 25, 24, 31, 53, 46, 45, 52
18, 39, 32, 31, 38, 60, 53, 52, 59
19, 33, 26, 25, 32, 54, 47, 46, 53
20, 40, 33, 32, 39, 61, 54, 53, 60
21, 34, 27, 26, 33, 55, 48, 47, 54
22, 41, 34, 33, 40, 62, 55, 54, 61
23, 35, 28, 27, 34, 56, 49, 48, 55
24, 42, 35, 34, 41, 63, 56, 55, 62
25, 51, 44, 43, 50, 72, 65, 64, 71
26, 58, 51, 50, 57, 79, 72, 71, 78
27, 52, 45, 44, 51, 73, 66, 65, 72
28, 59, 52, 51, 58, 80, 73, 72, 79
29, 53, 46, 45, 52, 74, 67, 66, 73
30, 60, 53, 52, 59, 81, 74, 73, 80
31, 54, 47, 46, 53, 75, 68, 67, 74
32, 61, 54, 53, 60, 82, 75, 74, 81
33, 55, 48, 47, 54, 76, 69, 68, 75
34, 62, 55, 54, 61, 83, 76, 75, 82
35, 56, 49, 48, 55, 77, 70, 69, 76
36, 63, 56, 55, 62, 84, 77, 76, 83
37, 72, 65, 64, 71, 93, 86, 85, 92
38, 79, 72, 71, 78, 100, 93, 92, 99
39, 73, 66, 65, 72, 94, 87, 86, 93
40, 80, 73, 72, 79, 101, 94, 93, 100
41, 74, 67, 66, 73, 95, 88, 87, 94
42, 81, 74, 73, 80, 102, 95, 94, 101
43, 75, 68, 67, 74, 96, 89, 88, 95
44, 82, 75, 74, 81, 103, 96, 95, 102
45, 76, 69, 68, 75, 97, 90, 89, 96
46, 83, 76, 75, 82, 104, 97, 96, 103
47, 77, 70, 69, 76, 98, 91, 90, 97
48, 84, 77, 76, 83, 105, 98, 97, 104
49, 93, 86, 85, 92, 114, 107, 106, 113
50, 100, 93, 92, 99, 121, 114, 113, 120
51, 94, 87, 86, 93, 115, 108, 107, 114
52, 101, 94, 93, 100, 122, 115, 114, 121
53, 95, 88, 87, 94, 116, 109, 108, 115
54, 102, 95, 94, 101, 123, 116, 115, 122
55, 96, 89, 88, 95, 117, 110, 109, 116
56, 103, 96, 95, 102, 124, 117, 116, 123
57, 97, 90, 89, 96, 118, 111, 110, 117
58, 104, 97, 96, 103, 125, 118, 117, 124
59, 98, 91, 90, 97, 119, 112, 111, 118
60, 105, 98, 97, 104, 126, 119, 118, 125
61, 114, 107, 106, 113, 135, 128, 127, 134
62, 121, 114, 113, 120, 142, 135, 134, 141
63, 115, 108, 107, 114, 136, 129, 128, 135
64, 122, 115, 114, 121, 143, 136, 135, 142
65, 116, 109, 108, 115, 137, 130, 129, 136
66, 123, 116, 115, 122, 144, 137, 136, 143
67, 117, 110, 109, 116, 138, 131, 130, 137
68, 124, 117, 116, 123, 145, 138, 137, 144
69, 118, 111, 110, 117, 139, 132, 131, 138
70, 125, 118, 117, 124, 146, 139, 138, 145
71, 119, 112, 111, 118, 140, 133, 132, 139
72, 126, 119, 118, 125, 147, 140, 139, 146
73, 135, 128, 127, 134, 156, 149, 148, 155
74, 142, 135, 134, 141, 163, 156, 155, 162
75, 136, 129, 128, 135, 157, 150, 149, 156
76, 143, 136, 135, 142, 164, 157, 156, 163
77, 137, 130, 129, 136, 158, 151, 150, 157
78, 144, 137, 136, 143, 165, 158, 157, 164
79, 138, 131, 130, 137, 159, 152, 151, 158
80, 145, 138, 137, 144, 166, 159, 158, 165
81, 139, 132, 131, 138, 160, 153, 152, 159
82, 146, 139, 138, 145, 167, 160, 159, 166
83, 140, 133, 132, 139, 161, 154, 153, 160
84, 147, 140, 139, 146, 168, 161, 160, 167
85, 156, 149, 148, 155, 177, 170, 169, 176
86, 163, 156, 155, 162, 184, 177, 176, 183
87, 157, 150, 149, 156, 178, 171, 170, 177
88, 164, 157, 156, 163, 185, 178, 177, 184
89, 158, 151, 150, 157, 179, 172, 171, 178
90, 165, 158, 157, 164, 186, 179, 178, 185
91, 159, 152, 151, 158, 180, 173, 172, 179
92, 166, 159, 158, 165, 187, 180, 179, 186
93, 160, 153, 152, 159, 181, 174, 173, 180
94, 167, 160, 159, 166, 188, 181, 180, 187
95, 161, 154, 153, 160, 182, 175, 174, 181
96, 168, 161, 160, 167, 189, 182, 181, 188
97, 177, 170, 169, 176, 198, 191, 190, 197
98, 184, 177, 176, 183, 205, 198, 197, 204
99, 178, 171, 170, 177, 199, 192, 191, 198
100, 185, 178, 177, 184, 206, 199, 198, 205
101, 179, 172, 171, 178, 200, 193, 192, 199
102, 186, 179, 178, 185, 207, 200, 199, 206
103, 180, 173, 172, 179, 201, 194, 193, 200
104, 187, 180, 179, 186, 208, 201, 200, 207
105, 181, 174, 173, 180, 202, 195, 194, 201
106, 188, 181, 180, 187, 209, 202, 201, 208
107, 182, 175, 174, 181, 203, 196, 195, 202
108, 189, 182, 181, 188, 210, 203, 202, 209
109, 198, 191, 190, 197, 219, 212, 211, 218
110, 205, 198, 197, 204, 226, 219, 218, 225
111, 199, 192, 191, 198, 220, 213, 212, 219
112, 206, 199, 198, 205, 227, 220, 219, 226
113, 200, 193, 192, 199, 221, 214, 213, 220
114, 207, 200, 199, 206, 228, 221, 220, 227
115, 201, 194, 193, 200, 222, 215, 214, 221
116, 208, 201, 200, 207, 229, 222, 221, 228
117, 202, 195, 194, 201, 223, 216, 215, 222
118, 209, 202, 201, 208, 230, 223, 222, 229
119, 203, 196, 195, 202, 224, 217, 216, 223
120, 210, 203, 202, 209, 231, 224, 223, 230
121, 219, 212, 211, 218, 240, 233, 232, 239
122, 226, 219, 218, 225, 247, 240, 239, 246
123, 220, 213, 212, 219, 241, 234, 233, 240
124, 227, 220, 219, 226, 248, 241, 240, 247
125, 221, 214, 213, 220, 242, 235, 234, 241
126, 228, 221, 220, 227, 249, 242, 241, 248
127, 222, 215, 214, 221, 243, 236, 235, 242
128, 229, 222, 221, 228, 250, 243, 242, 249
129, 223, 216, 215, 222, 244, 237, 236, 243
130, 230, 223, 222, 229, 251, 244, 243, 250
131, 224, 217, 216, 223, 245, 238, 237, 244
132, 231, 224, 223, 230, 252, 245, 244, 251
133, 240, 233, 232, 239, 261, 254, 253, 260
134, 247, 240, 239, 246, 268, 261, 260, 267
135, 241, 234, 233, 240, 262, 255, 254, 261
136, 248, 241, 240, 247, 269, 262, 261, 268
137, 242, 235, 234, 241, 263, 256, 255, 262
138, 249, 242, 241, 248, 270, 263, 262, 269
139, 243, 236, 235, 242, 264, 257, 256, 263
140, 250, 243, 242, 249, 271, 264, 263, 270
141, 244, 237, 236, 243, 265, 258, 257, 264
142, 251, 244, 243, 250, 272, 265, 264, 271
143, 245, 238, 237, 244, 266, 259, 258, 265
144, 252, 245, 244, 251, 273, 266, 265, 272
145, 261, 254, 253, 260, 282, 275, 274, 281
146, 268, 261, 260, 267, 289, 282, 281, 288
147, 262, 255, 254, 261, 283, 276, 275, 282
148, 269, 262, 261, 268, 290, 283, 282, 289
149, 263, 256, 255, 262, 284, 277, 276, 283
150, 270, 263, 262, 269, 291, 284, 283, 290
151, 264, 257, 256, 263, 285, 278, 277, 284
152, 271, 264, 263, 270, 292, 285, 284, 291
153, 265, 258, 257, 264, 286, 279, 278, 285
154, 272, 265, 264, 271, 293, 286, 285, 292
155, 266, 259, 258, 265, 287, 280, 279, 286
156, 273, 266, 265, 272, 294, 287, 286, 293
157, 282, 275, 274, 281, 303, 296, 295, 302
158, 289, 282, 281, 288, 310, 303, 302, 309
159, 283, 276, 275, 282, 304, 297, 296, 303
160, 290, 283, 282, 289, 311, 304, 303, 310
161, 284, 277, 276, 283, 305, 298, 297, 304
162, 291, 284, 283, 290, 312, 305, 304, 311
163, 285, 278, 277, 284, 306, 299, 298, 305
164, 292, 285, 284, 291, 313, 306, 305, 312
165, 286, 279, 278, 285, 307, 300, 299, 306
166, 293, 286, 285, 292, 314, 307, 306, 313
167, 287, 280, 279, 286, 308, 301, 300, 307
168, 294, 287, 286, 293, 315, 308, 307, 314
169, 303, 296, 295, 302, 324, 317, 316, 323
170, 310, 303, 302, 309, 331, 324, 323, 330
171, 304, 297, 296, 303, 325, 318, 317, 324
172, 311, 304, 303, 310, 332, 325, 324, 331
173, 305, 298, 297, 304, 326, 319, 318, 325
174, 312, 305, 304, 311, 333, 326, 325, 332
175, 306, 299, 298, 305, 327, 320, 319, 326
176, 313, 306, 305, 312, 334, 327, 326, 333
177, 307, 300, 299, 306, 328, 321, 320, 327
178, 314, 307, 306, 313, 335, 328, 327, 334
179, 308, 301, 300, 307, 329, 322, 321, 328
180, 315, 308, 307, 314, 336, 329, 328, 335
181, 324, 317, 316, 323, 345, 338, 337, 344
182, 331, 324, 323, 330, 352, 345, 344, 351
183, 325, 318, 317, 324, 346, 339, 338, 345
184, 332, 325, 324, 331, 353, 346, 345, 352
185, 326, 319, 318, 325, 347, 340, 339, 346
186, 333, 326, 325, 332, 354, 347, 346, 353
187, 327, 320, 319, 326, 348, 341, 340, 347
188, 334, 327, 326, 333, 355, 348, 347, 354
189, 328, 321, 320, 327, 349, 342, 341, 348
190, 335, 328, 327, 334, 356, 349, 348, 355
191, 329, 322, 321, 328, 350, 343, 342, 349
192, 336, 329, 328, 335, 357, 350, 349, 356
193, 345, 338, 337, 344, 366, 359, 358, 365
194, 352, 345, 344, 351, 373, 366, 365, 372
195, 346, 339, 338, 345, 367, 360, 359, 366
196, 353, 346, 345, 352, 374, 367, 366, 373
197, 347, 340, 339, 346, 368, 361, 360, 367
198, 354, 347, 346, 353, 375, 368, 367, 374
199, 348, 341, 340, 347, 369, 362, 361, 368
200, 355, 348, 347, 354, 376, 369, 368, 375
201, 349, 342, 341, 348, 370, 363, 362, 369
202, 356, 349, 348, 355, 377, 370, 369, 376
203, 350, 343, 342, 349, 371, 364, 363, 370
204, 357, 350, 349, 356, 378, 371, 370, 377
205, 366, 359, 358, 365, 387, 380, 379, 386
206, 373, 366, 365, 372, 394, 387, 386, 393
207, 367, 360, 359, 366, 388, 381, 380, 387
208, 374, 367, 366, 373, 395, 388, 387, 394
209, 368, 361, 360, 367, 389, 382, 381, 388
210, 375, 368, 367, 374, 396, 389, 388, 395
211, 369, 362, 361, 368, 390, 383, 382, 389
212, 376, 369, 368, 375, 397, 390, 389, 396
213, 370, 363, 362, 369, 391, 384, 383, 390
214, 377, 370, 369, 376, 398, 391, 390, 397
215, 371, 364, 363, 370, 392, 385, 384, 391
216, 378, 371, 370, 377, 399, 392, 391, 398
217, 408, 401, 400, 407, 429, 422, 421, 428
218, 415, 408, 407, 414, 436, 429, 428, 435
219, 409, 402, 401, 408, 430, 423, 422, 429
220, 416, 409, 408, 415, 437, 430, 429, 436
221, 410, 403, 402, 409, 431, 424, 423, 430
222, 417, 410, 409, 416, 438, 431, 430, 437
223, 411, 404, 403, 410, 432, 425, 424, 431
224, 418, 411, 410, 417, 439, 432, 431, 438
225, 412, 405, 404, 411, 433, 426, 425, 432
226, 419, 412, 411, 418, 440, 433, 432, 439
227, 413, 406, 405, 412, 434, 427, 426, 433
228, 420, 413, 412, 419, 441, 434, 433, 440
229, 429, 422, 421, 428, 450, 443, 442, 449
230, 436, 429, 428, 435, 457, 450, 449, 456
231, 430, 423, 422, 429, 451, 444, 443, 450
232, 437, 430, 429, 436, 458, 451, 450, 457
233, 431, 424, 423, 430, 452, 445, 444, 451
234, 438, 431, 430, 437, 459, 452, 451, 458
235, 432, 425, 424, 431, 453, 446, 445, 452
236, 439, 432, 431, 438, 460, 453, 452, 459
237, 433, 426, 425, 432, 454, 447, 446, 453
238, 440, 433, 432, 439, 461, 454, 453, 460
239, 434, 427, 426, 433, 455, 448, 447, 454
240, 441, 434, 433, 440, 462, 455, 454, 461
241, 450, 443, 442, 449, 471, 464, 463, 470
242, 457, 450, 449, 456, 478, 471, 470, 477
243, 451, 444, 443, 450, 472, 465, 464, 471
244, 458, 451, 450, 457, 479, 472, 471, 478
245, 452, 445, 444, 451, 473, 466, 465, 472
246, 459, 452, 451, 458, 480, 473, 472, 479
247, 453, 446, 445, 452, 474, 467, 466, 473
248, 460, 453, 452, 459, 481, 474, 473, 480
249, 454, 447, 446, 453, 475, 468, 467, 474
250, 461, 454, 453, 460, 482, 475, 474, 481
251, 455, 448, 447, 454, 476, 469, 468, 475
252, 462, 455, 454, 461, 483, 476, 475, 482
253, 471, 464, 463, 470, 492, 485, 484, 491
254, 478, 471, 470, 477, 499, 492, 491, 498
255, 472, 465, 464, 471, 493, 486, 485, 492
256, 479, 472, 471, 478, 500, 493, 492, 499
257, 473, 466, 465, 472, 494, 487, 486, 493
258, 480, 473, 472, 479, 501, 494, 493, 500
259, 474, 467, 466, 473, 495, 488, 487, 494
260, 481, 474, 473, 480, 502, 495, 494, 501
261, 475, 468, 467, 474, 496, 489, 488, 495
262, 482, 475, 474, 481, 503, 496, 495, 502
263, 476, 469, 468, 475, 497, 490, 489, 496
264, 483, 476, 475, 482, 504, 497, 496, 503
265, 492, 485, 484, 491, 513, 506, 505, 512
266, 499, 492, 491, 498, 520, 513, 512, 519
267, 493, 486, 485, 492, 514, 507, 506, 513
268, 500, 493, 492, 499, 521, 514, 513, 520
269, 494, 487, 486, 493, 515, 508, 507, 514
270, 501, 494, 493, 500, 522, 515, 514, 521
271, 495, 488, 487, 494, 516, 509, 508, 515
272, 502, 495, 494, 501, 523, 516, 515, 522
273, 496, 489, 488, 495, 517, 510, 509, 516
274, 503, 496, 495, 502, 524, 517, 516, 523
275, 497, 490, 489, 496, 518, 511, 510, 517
276, 504, 497, 496, 503, 525, 518, 517, 524
277, 513, 506, 505, 512, 534, 527, 526, 533
278, 520, 513, 512, 519, 541, 534, 533, 540
279, 514, 507, 506, 513, 535, 528, 527, 534
280, 521, 514, 513, 520, 542, 535, 534, 541
281, 515, 508, 507, 514, 536, 529, 528, 535
282, 522, 515, 514, 521, 543, 536, 535, 542
283, 516, 509, 508, 515, 537, 530, 529, 536
284, 523, 516, 515, 522, 544, 537, 536, 543
285, 517, 510, 509, 516, 538, 531, 530, 537
286, 524, 517, 516, 523, 545, 538, 537, 544
287, 518, 511, 510, 517, 539, 532, 531, 538
288, 525, 518, 517, 524, 546, 539, 538, 545
289, 534, 527, 526, 533, 555, 548, 547, 554
290, 541, 534, 533, 540, 562, 555, 554, 561
291, 535, 528, 527, 534, 556, 549, 548, 555
292, 542, 535, 534, 541, 563, 556, 555, 562
293, 536, 529, 528, 535, 557, 550, 549, 556
294, 543, 536, 535, 542, 564, 557, 556, 563
295, 537, 530, 529, 536, 558, 551, 550, 557
296, 544, 537, 536, 543, 565, 558, 557, 564
297, 538, 531, 530, 537, 559, 552, 551, 558
298, 545, 538, 537, 544, 566, 559, 558, 565
299, 539, 532, 531, 538, 560, 553, 552, 559
300, 546, 539, 538, 545, 567, 560, 559, 566
301, 555, 548, 547, 554, 576, 569, 568, 575
302, 562, 555, 554, 561, 583, 576, 575, 582
303, 556, 549, 548, 555, 577, 570, 569, 576
304, 563, 556, 555, 562, 584, 577, 576, 583
305, 557, 550, 549, 556, 578, 571, 570, 577
306, 564, 557, 556, 563, 585, 578, 577, 584
307, 558, 551, 550, 557, 579, 572, 571, 578
308, 565, 558, 557, 564, 586, 579, 578, 585
309, 559, 552, 551, 558, 580, 573, 572, 579
310, 566, 559, 558, 565, 587, 580, 579, 586
311, 560, 553, 552, 559, 581, 574, 573, 580
312, 567, 560, 559, 566, 588, 581, 580, 587
313, 576, 569, 568, 575, 597, 590, 589, 596
314, 583, 576, 575, 582, 604, 597, 596, 603
315, 577, 570, 569, 576, 598, 591, 590, 597
316, 584, 577, 576, 583, 605, 598, 597, 604
317, 578, 571, 570, 577, 599, 592, 591, 598
318, 585, 578, 577, 584, 606, 599, 598, 605
319, 579, 572, 571, 578, 600, 593, 592, 599
320, 586, 579, 578, 585, 607, 600, 599, 606
321, 580, 573, 572, 579, 601, 594, 593, 600
322, 587, 580, 579, 586, 608, 601, 600, 607
323, 581, 574, 573, 580, 602, 595, 594, 601
324, 588, 581, 580, 587, 609, 602, 601, 608
325, 597, 590, 589, 596, 618, 611, 610, 617
326, 604, 597, 596, 603, 625, 618, 617, 624
327, 598, 591, 590, 597, 619, 612, 611, 618
328, 605, 598, 597, 604, 626, 619, 618, 625
329, 599, 592, 591, 598, 620, 613, 612, 619
330, 606, 599, 598, 605, 627, 620, 619, 626
331, 600, 593, 592, 599, 621, 614, 613, 620
332, 607, 600, 599, 606, 628, 621, 620, 627
333, 601, 594, 593, 600, 622, 615, 614, 621
334, 608, 601, 600, 607, 629, 622, 621, 628
335, 602, 595, 594, 601, 623, 616, 615, 622
336, 609, 602, 601, 608, 630, 623, 622, 629
337, 618, 611, 610, 617, 639, 632, 631, 638
338, 625, 618, 617, 624, 646, 639, 638, 645
339, 619, 612, 611, 618, 640, 633, 632, 639
340, 626, 619, 618, 625, 647, 640, 639, 646
341, 620, 613, 612, 619, 641, 634, 633, 640
342, 627, 620, 619, 626, 648, 641, 640, 647
343, 621, 614, 613, 620, 642, 635, 634, 641
344, 628, 621, 620, 627, 649, 642, 641, 648
345, 622, 615, 614, 621, 643, 636, 635, 642
346, 629, 622, 621, 628, 650, 643, 642, 649
347, 623, 616, 615, 622, 644, 637, 636, 643
348, 630, 623, 622, 629, 651, 644, 643, 650
349, 639, 632, 631, 638, 660, 653, 652, 659
350, 646, 639, 638, 645, 667, 660, 659, 666
351, 640, 633, 632, 639, 661, 654, 653, 660
352, 647, 640, 639, 646, 668, 661, 660, 667
353, 641, 634, 633, 640, 662, 655, 654, 661
354, 648, 641, 640, 647, 669, 662, 661, 668
355, 642, 635, 634, 641, 663, 656, 655, 662
356, 649, 642, 641, 648, 670, 663, 662, 669
357, 643, 636, 635, 642, 664, 657, 656, 663
358, 650, 643, 642, 649, 671, 664, 663, 670
359, 644, 637, 636, 643, 665, 658, 657, 664
360, 651, 644, 643, 650, 672, 665, 664, 671
361, 660, 653, 652, 659, 681, 674, 673, 680
362, 667, 660, 659, 666, 688, 681, 680, 687
363, 661, 654, 653, 660, 682, 675, 674, 681
364, 668, 661, 660, 667, 689, 682, 681, 688
365, 662, 655, 654, 661, 683, 676, 675, 682
366, 669, 662, 661, 668, 690, 683, 682, 689
367, 663, 656, 655, 662, 684, 677, 676, 683
368, 670, 663, 662, 669, 691, 684, 683, 690
369, 664, 657, 656, 663, 685, 678, 677, 684
370, 671, 664, 663, 670, 692, 685, 684, 691
371, 665, 658, 657, 664, 686, 679, 678, 685
372, 672, 665, 664, 671, 693, 686, 685, 692
373, 681, 674, 673, 680, 702, 695, 694, 701
374, 688, 681, 680, 687, 709, 702, 701, 708
375, 682, 675, 674, 681, 703, 696, 695, 702
376, 689, 682, 681, 688, 710, 703, 702, 709
377, 683, 676, 675, 682, 704, 697, 696, 703
378, 690, 683, 682, 689, 711, 704, 703, 710
379, 684, 677, 676, 683, 705, 698, 697, 704
380, 691, 684, 683, 690, 712, 705, 704, 711
381, 685, 678, 677, 684, 706, 699, 698, 705
382, 692, 685, 684, 691, 713, 706, 705, 712
383, 686, 679, 678, 685, 707, 700, 699, 706
384, 693, 686, 685, 692, 714, 707, 706, 713
385, 702, 695, 694, 701, 723, 716, 715, 722
386, 709, 702, 701, 708, 730, 723, 722, 729
387, 703, 696, 695, 702, 724, 717, 716, 723
388, 710, 703, 702, 709, 731, 724, 723, 730
389, 704, 697, 696, 703, 725, 718, 717, 724
390, 711, 704, 703, 710, 732, 725, 724, 731
391, 705, 698, 697, 704, 726, 719, 718, 725
392, 712, 705, 704, 711, 733, 726, 725, 732
393, 706, 699, 698, 705, 727, 720, 719, 726
394, 713, 706, 705, 712, 734, 727, 726, 733
395, 707, 700, 699, 706, 728, 721, 720, 727
396, 714, 707, 706, 713, 735, 728, 727, 734
397, 723, 716, 715, 722, 744, 737, 736, 743
398, 730, 723, 722, 729, 751, 744, 743, 750
399, 724, 717, 716, 723, 745, 738, 737, 744
400, 731, 724, 723, 730, 752, 745, 744, 751
401, 725, 718, 717, 724, 746, 739, 738, 745
402, 732, 725, 724, 731, 753, 746, 745, 752
403, 726, 719, 718, 725, 747, 740, 739, 746
404, 733, 726, 725, 732, 754, 747, 746, 753
405, 727, 720, 719, 726, 748, 741, 740, 747
406, 734, 727, 726, 733, 755, 748, 747, 754
407, 728, 721, 720, 727, 749, 742, 741, 748
408, 735, 728, 727, 734, 756, 749, 748, 755
409, 744, 737, 736, 743, 765, 758, 757, 764
410, 751, 744, 743, 750, 772, 765, 764, 771
411, 745, 738, 737, 744, 766, 759, 758, 765
412, 752, 745, 744, 751, 773, 766, 765, 772
413, 746, 739, 738, 745, 767, 760, 759, 766
414, 753, 746, 745, 752, 774, 767, 766, 773
415, 747, 740, 739, 746, 768, 761, 760, 767
416, 754, 747, 746, 753, 775, 768, 767, 774
417, 748, 741, 740, 747, 769, 762, 761, 768
418, 755, 748, 747, 754, 776, 769, 768, 775
419, 749, 742, 741, 748, 770, 763, 762, 769
420, 756, 749, 748, 755, 777, 770, 769, 776
421, 765, 758, 757, 764, 786, 779, 778, 785
422, 772, 765, 764, 771, 793, 786, 785, 792
423, 766, 759, 758, 765, 787, 780, 779, 786
424, 773, 766, 765, 772, 794, 787, 786, 793
425, 767, 760, 759, 766, 788, 781, 780, 787
426, 774, 767, 766, 773, 795, 788, 787, 794
427, 768, 761, 760, 767, 789, 782, 781, 788
428, 775, 768, 767, 774, 796, 789, 788, 795
429, 769, 762, 761, 768, 790, 783, 782, 789
430, 776, 769, 768, 775, 797, 790, 789, 796
431, 770, 763, 762, 769, 791, 784, 783, 790
432, 777, 770, 769, 776, 798, 791, 790, 797
433, 807, 800, 799, 806, 828, 821, 820, 827
434, 814, 807, 806, 813, 835, 828, 827, 834
435, 808, 801, 800, 807, 829, 822, 821, 828
436, 815, 808, 807, 814, 836, 829, 828, 835
437, 809, 802, 801, 808, 830, 823, 822, 829
438, 816, 809, 808, 815, 837, 830, 829, 836
439, 810, 803, 802, 809, 831, 824, 823, 830
440, 817, 810, 809, 816, 838, 831, 830, 837
441, 811, 804, 803, 810, 832, 825, 824, 831
442, 818, 811, 810, 817, 839, 832, 831, 838
443, 812, 805, 804, 811, 833, 826, 825, 832
444, 819, 812, 811, 818, 840, 833, 832, 839
445, 828, 821, 820, 827, 849, 842, 841, 848
446, 835, 828, 827, 834, 856, 849, 848, 855
447, 829, 822, 821, 828, 850, 843, 842, 849
448, 836, 829, 828, 835, 857, 850, 849, 856
449, 830, 823, 822, 829, 851, 844, 843, 850
450, 837, 830, 829, 836, 858, 851, 850, 857
451, 831, 824, 823, 830, 852, 845, 844, 851
452, 838, 831, 830, 837, 859, 852, 851, 858
453, 832, 825, 824, 831, 853, 846, 845, 852
454, 839, 832, 831, 838, 860, 853, 852, 859
455, 833, 826, 825, 832, 854, 847, 846, 853
456, 840, 833, 832, 839, 861, 854, 853, 860
457, 849, 842, 841, 848, 870, 863, 862, 869
458, 856, 849, 848, 855, 877, 870, 869, 876
459, 850, 843, 842, 849, 871, 864, 863, 870
460, 857, 850, 849, 856, 878, 871, 870, 877
461, 851, 844, 843, 850, 872, 865, 864, 871
462, 858, 851, 850, 857, 879, 872, 871, 878
463, 852, 845, 844, 851, 873, 866, 865, 872
464, 859, 852, 851, 858, 880, 873, 872, 879
465, 853, 846, 845, 852, 874, 867, 866, 873
466, 860, 853, 852, 859, 881, 874, 873, 880
467, 854, 847, 846, 853, 875, 868, 867, 874
468, 861, 854, 853, 860, 882, 875, 874, 881
469, 870, 863, 862, 869, 891, 884, 883, 890
470, 877, 870, 869, 876, 898, 891, 890, 897
471, 871, 864, 863, 870, 892, 885, 884, 891
472, 878, 871, 870, 877, 899, 892, 891, 898
473, 872, 865, 864, 871, 893, 886, 885, 892
474, 879, 872, 871, 878, 900, 893, 892, 899
475, 873, 866, 865, 872, 894, 887, 886, 893
476, 880, 873, 872, 879, 901, 894, 893, 900
477, 874, 867, 866, 873, 895, 888, 887, 894
478, 881, 874, 873, 880, 902, 895, 894, 901
479, 875, 868, 867, 874, 896, 889, 888, 895
480, 882, 875, 874, 881, 903, 896, 895, 902
481, 891, 884, 883, 890, 912, 905, 904, 911
482, 898, 891, 890, 897, 919, 912, 911, 918
483, 892, 885, 884, 891, 913, 906, 905, 912
484, 899, 892, 891, 898, 920, 913, 912, 919
485, 893, 886, 885, 892, 914, 907, 906, 913
486, 900, 893, 892, 899, 921, 914, 913, 920
487, 894, 887, 886, 893, 915, 908, 907, 914
488, 901, 894, 893, 900, 922, 915, 914, 921
489, 895, 888, 887, 894, 916, 909, 908, 915
490, 902, 895, 894, 901, 923, 916, 915, 922
491, 896, 889, 888, 895, 917, 910, 909, 916
492, 903, 896, 895, 902, 924, 917, 916, 923
493, 912, 905, 904, 911, 933, 926, 925, 932
494, 919, 912, 911, 918, 940, 933, 932, 939
495, 913, 906, 905, 912, 934, 927, 926, 933
496, 920, 913, 912, 919, 941, 934, 933, 940
497, 914, 907, 906, 913, 935, 928, 927, 934
498, 921, 914, 913, 920, 942, 935, 934, 941
499, 915, 908, 907, 914, 936, 929, 928, 935
500, 922, 915, 914, 921, 943, 936, 935, 942
501, 916, 909, 908, 915, 937, 930, 929, 936
502, 923, 916, 915, 922, 944, 937, 936, 943
503, 917, 910, 909, 916, 938, 931, 930, 937
504, 924, 917, 916, 923, 945, 938, 937, 944
505, 933, 926, 925, 932, 954, 947, 946, 953
506, 940, 933, 932, 939, 961, 954, 953, 960
507, 934, 927, 926, 933, 955, 948, 947, 954
508, 941, 934, 933, 940, 962, 955, 954, 961
509, 935, 928, 927, 934, 956, 949, 948, 955
510, 942, 935, 934, 941, 963, 956, 955, 962
511, 936, 929, 928, 935, 957, 950, 949, 956
512, 943, 936, 935, 942, 964, 957, 956, 963
513, 937, 930, 929, 936, 958, 951, 950, 957
514, 944, 937, 936, 943, 965, 958, 957, 964
515, 938, 931, 930, 937, 959, 952, 951, 958
516, 945, 938, 937, 944, 966, 959, 958, 965
517, 954, 947, 946, 953, 975, 968, 967, 974
518, 961, 954, 953, 960, 982, 975, 974, 981
519, 955, 948, 947, 954, 976, 969, 968, 975
520, 962, 955, 954, 961, 983, 976, 975, 982
521, 956, 949, 948, 955, 977, 970, 969, 976
522, 963, 956, 955, 962, 984, 977, 976, 983
523, 957, 950, 949, 956, 978, 971, 970, 977
524, 964, 957, 956, 963, 985, 978, 977, 984
525, 958, 951, 950, 957, 979, 972, 971, 978
526, 965, 958, 957, 964, 986, 979, 978, 985
527, 959, 952, 951, 958, 980, 973, 972, 979
528, 966, 959, 958, 965, 987, 980, 979, 986
529, 975, 968, 967, 974, 996, 989, 988, 995
530, 982, 975, 974, 981, 1003, 996, 995, 1002
531, 976, 969, 968, 975, 997, 990, 989, 996
532, 983, 976, 975, 982, 1004, 997, 996, 1003
533, 977, 970, 969, 976, 998, 991, 990, 997
534, 984, 977, 976, 983, 1005, 998, 997, 1004
535, 978, 971, 970, 977, 999, 992, 991, 998
536, 985, 978, 977, 984, 1006, 999, 998, 1005
537, 979, 972, 971, 978, 1000, 993, 992, 999
538, 986, 979, 978, 985, 1007, 1000, 999, 1006
539, 980, 973, 972, 979, 1001, 994, 993, 1000
540, 987, 980, 979, 986, 1008, 1001, 1000, 1007
541, 996, 989, 988, 995, 1017, 1010, 1009, 1016
542, 1003, 996, 995, 1002, 1024, 1017, 1016, 1023
543, 997, 990, 989, 996, 1018, 1011, 1010, 1017
544, 1004, 997, 996, 1003, 1025, 1018, 1017, 1024
545, 998, 991, 990, 997, 1019, 1012, 1011, 1018
546, 1005, 998, 997, 1004, 1026, 1019, 1018, 1025
547, 999, 992, 991, 998, 1020, 1013, 1012, 1019
548, 1006, 999, 998, 1005, 1027, 1020, 1019, 1026
549, 1000, 993, 992, 999, 1021, 1014, 1013, 1020
550, 1007, 1000, 999, 1006, 1028, 1021, 1020, 1027
551, 1001, 994, 993, 1000, 1022, 1015, 1014, 1021
552, 1008, 1001, 1000, 1007, 1029, 1022, 1021, 1028
553, 1017, 1010, 1009, 1016, 1038, 1031, 1030, 1037
554, 1024, 1017, 1016, 1023, 1045, 1038, 1037, 1044
555, 1018, 1011, 1010, 1017, 1039, 1032, 1031, 1038
556, 1025, 1018, 1017, 1024, 1046, 1039, 1038, 1045
557, 1019, 1012, 1011, 1018, 1040, 1033, 1032, 1039
558, 1026, 1019, 1018, 1025, 1047, 1040, 1039, 1046
559, 1020, 1013, 1012, 1019, 1041, 1034, 1033, 1040
560, 1027, 1020, 1019, 1026, 1048, 1041, 1040, 1047
561, 1021, 1014, 1013, 1020, 1042, 1035, 1034, 1041
562, 1028, 1021, 1020, 1027, 1049, 1042, 1041, 1048
563, 1022, 1015, 1014, 1021, 1043, 1036, 1035, 1042
564, 1029, 1022, 1021, 1028, 1050, 1043, 1042, 1049
565, 1038, 1031, 1030, 1037, 1059, 1052, 1051, 1058
566, 1045, 1038, 1037, 1044, 1066, 1059, 1058, 1065
567, 1039, 1032, 1031, 1038, 1060, 1053, 1052, 1059
568, 1046, 1039, 1038, 1045, 1067, 1060, 1059, 1066
569, 1040, 1033, 1032, 1039, 1061, 1054, 1053, 1060
570, 1047, 1040, 1039, 1046, 1068, 1061, 1060, 1067
571, 1041, 1034, 1033, 1040, 1062, 1055, 1054, 1061
572, 1048, 1041, 1040, 1047, 1069, 1062, 1061, 1068
573, 1042, 1035, 1034, 1041, 1063, 1056, 1055, 1062
574, 1049, 1042, 1041, 1048, 1070, 1063, 1062, 1069
575, 1043, 1036, 1035, 1042, 1064, 1057, 1056, 1063
576, 1050, 1043, 1042, 1049, 1071, 1064, 1063, 1070
577, 1059, 1052, 1051, 1058, 1080, 1073, 1072, 1079
578, 1066, 1059, 1058, 1065, 1087, 1080, 1079, 1086
579, 1060, 1053, 1052, 1059, 1081, 1074, 1073, 1080
580, 1067, 1060, 1059, 1066, 1088, 1081, 1080, 1087
581, 1061, 1054, 1053, 1060, 1082, 1075, 1074, 1081
582, 1068, 1061, 1060, 1067, 1089, 1082, 1081, 1088
583, 1062, 1055, 1054, 1061, 1083, 1076, 1075, 1082
584, 1069, 1062, 1061, 1068, 1090, 1083, 1082, 1089
585, 1063, 1056, 1055, 1062, 1084, 1077, 1076, 1083
586, 1070, 1063, 1062, 1069, 1091, 1084, 1083, 1090
587, 1064, 1057, 1056, 1063, 1085, 1078, 1077, 1084
588, 1071, 1064, 1063, 1070, 1092, 1085, 1084, 1091
589, 1080, 1073, 1072, 1079, 1101, 1094, 1093, 1100
590, 1087, 1080, 1079, 1086, 1108, 1101, 1100, 1107
591, 1081, 1074, 1073, 1080, 1102, 1095, 1094, 1101
592, 1088, 1081, 1080, 1087, 1109, 1102, 1101, 1108
593, 1082, 1075, 1074, 1081, 1103, 1096, 1095, 1102
594, 1089, 1082, 1081, 1088, 1110, 1103, 1102, 1109
595, 1083, 1076, 1075, 1082, 1104, 1097, 1096, 1103
596, 1090, 1083, 1082, 1089, 1111, 1104, 1103, 1110
597, 1084, 1077, 1076, 1083, 1105, 1098, 1097, 1104
598, 1091, 1084, 1083, 1090, 1112, 1105, 1104, 1111
599, 1085, 1078, 1077, 1084, 1106, 1099, 1098, 1105
600, 1092, 1085, 1084, 1091, 1113, 1106, 1105, 1112
601, 1101, 1094, 1093, 1100, 1122, 1115, 1114, 1121
602, 1108, 1101, 1100, 1107, 1129, 1122, 1121, 1128
603, 1102, 1095, 1094, 1101, 1123, 1116, 1115, 1122
604, 1109, 1102, 1101, 1108, 1130, 1123, 1122, 1129
605, 1103, 1096, 1095, 1102, 1124, 1117, 1116, 1123
606, 1110, 1103, 1102, 1109, 1131, 1124, 1123, 1130
607, 1104, 1097, 1096, 1103, 1125, 1118, 1117, 1124
608, 1111, 1104, 1103, 1110, 1132, 1125, 1124, 1131
609, 1105, 1098, 1097, 1104, 1126, 1119, 1118, 1125
610, 1112, 1105, 1104, 1111, 1133, 1126, 1125, 1132
611, 1106, 1099, 1098, 1105, 1127, 1120, 1119, 1126
612, 1113, 1106, 1105, 1112, 1134, 1127, 1126, 1133
613, 1122, 1115, 1114, 1121, 1143, 1136, 1135, 1142
614, 1129, 1122, 1121, 1128, 1150, 1143, 1142, 1149
615, 1123, 1116, 1115, 1122, 1144, 1137, 1136, 1143
616, 1130, 1123, 1122, 1129, 1151, 1144, 1143, 1150
617, 1124, 1117, 1116, 1123, 1145, 1138, 1137, 1144
618, 1131, 1124, 1123, 1130, 1152, 1145, 1144, 1151
619, 1125, 1118, 1117, 1124, 1146, 1139, 1138, 1145
620, 1132, 1125, 1124, 1131, 1153, 1146, 1145, 1152
621, 1126, 1119, 1118, 1125, 1147, 1140, 1139, 1146
622, 1133, 1126, 1125, 1132, 1154, 1147, 1146, 1153
623, 1127, 1120, 1119, 1126, 1148, 1141, 1140, 1147
624, 1134, 1127, 1126, 1133, 1155, 1148, 1147, 1154
625, 1143, 1136, 1135, 1142, 1164, 1157, 1156, 1163
626, 1150, 1143, 1142, 1149, 1171, 1164, 1163, 1170
627, 1144, 1137, 1136, 1143, 1165, 1158, 1157, 1164
628, 1151, 1144, 1143, 1150, 1172, 1165, 1164, 1171
629, 1145, 1138, 1137, 1144, 1166, 1159, 1158, 1165
630, 1152, 1145, 1144, 1151, 1173, 1166, 1165, 1172
631, 1146, 1139, 1138, 1145, 1167, 1160, 1159, 1166
632, 1153, 1146, 1145, 1152, 1174, 1167, 1166, 1173
633, 1147, 1140, 1139, 1146, 1168, 1161, 1160, 1167
634, 1154, 1147, 1146, 1153, 1175, 1168, 1167, 1174
635, 1148, 1141, 1140, 1147, 1169, 1162, 1161, 1168
636, 1155, 1148, 1147, 1154, 1176, 1169, 1168, 1175
637, 1164, 1157, 1156, 1163, 1185, 1178, 1177, 1184
638, 1171, 1164, 1163, 1170, 1192, 1185, 1184, 1191
639, 1165, 1158, 1157, 1164, 1186, 1179, 1178, 1185
640, 1172, 1165, 1164, 1171, 1193, 1186, 1185, 1192
641, 1166, 1159, 1158, 1165, 1187, 1180, 1179, 1186
642, 1173, 1166, 1165, 1172, 1194, 1187, 1186, 1193
643, 1167, 1160, 1159, 1166, 1188, 1181, 1180, 1187
644, 1174, 1167, 1166, 1173, 1195, 1188, 1187, 1194
645, 1168, 1161, 1160, 1167, 1189, 1182, 1181, 1188
646, 1175, 1168, 1167, 1174, 1196, 1189, 1188, 1195
647, 1169, 1162, 1161, 1168, 1190, 1183, 1182, 1189
648, 1176, 1169, 1168, 1175, 1197, 1190, 1189, 1196
649, 1206, 1199, 1198, 1205, 1227, 1220, 1219, 1226
650, 1213, 1206, 1205, 1212, 1234, 1227, 1226, 1233
651, 1207, 1200, 1199, 1206, 1228, 1221, 1220, 1227
652, 1214, 1207, 1206, 1213, 1235, 1228, 1227, 1234
653, 1208, 1201, 1200, 1207, 1229, 1222, 1221, 1228
654, 1215, 1208, 1207, 1214, 1236, 1229, 1228, 1235
655, 1209, 1202, 1201, 1208, 1230, 1223, 1222, 1229
656, 1216, 1209, 1208, 1215, 1237, 1230, 1229, 1236
657, 1210, 1203, 1202, 1209, 1231, 1224, 1223, 1230
658, 1217, 1210, 1209, 1216, 1238, 1231, 1230, 1237
659, 1211, 1204, 1203, 1210, 1232, 1225, 1224, 1231
660, 1218, 1211, 1210, 1217, 1239, 1232, 1231, 1238
661, 1227, 1220, 1219, 1226, 1248, 1241, 1240, 1247
662, 1234, 1227, 1226, 1233, 1255, 1248, 1247, 1254
663, 1228, 1221, 1220, 1227, 1249, 1242, 1241, 1248
664, 1235, 1228, 1227, 1234, 1256, 1249, 1248, 1255
665, 1229, 1222, 1221, 1228, 1250, 1243, 1242, 1249
666, 1236, 1229, 1228, 1235, 1257, 1250, 1249, 1256
667, 1230, 1223, 1222, 1229, 1251, 1244, 1243, 1250
668, 1237, 1230, 1229, 1236, 1258, 1251, 1250, 1257
669, 1231, 1224, 1223, 1230, 1252, 1245, 1244, 1251
670, 1238, 1231, 1230, 1237, 1259, 1252, 1251, 1258
671, 1232, 1225, 1224, 1231, 1253, 1246, 1245, 1252
672, 1239, 1232, 1231, 1238, 1260, 1253, 1252, 1259
673, 1248, 1241, 1240, 1247, 1269, 1262, 1261, 1268
674, 1255, 1248, 1247, 1254, 1276, 1269, 1268, 1275
675, 1249, 1242, 1241, 1248, 1270, 1263, 1262, 1269
676, 1256, 1249, 1248, 1255, 1277, 1270, 1269, 1276
677, 1250, 1243, 1242, 1249, 1271, 1264, 1263, 1270
678, 1257, 1250, 1249, 1256, 1278, 1271, 1270, 1277
679, 1251, 1244, 1243, 1250, 1272, 1265, 1264, 1271
680, 1258, 1251, 1250, 1257, 1279, 1272, 1271, 1278
681, 1252, 1245, 1244, 1251, 1273, 1266, 1265, 1272
682, 1259, 1252, 1251, 1258, 1280, 1273, 1272, 1279
683, 1253, 1246, 1245, 1252, 1274, 1267, 1266, 1273
684, 1260, 1253, 1252, 1259, 1281, 1274, 1273, 1280
685, 1269, 1262, 1261, 1268, 1290, 1283, 1282, 1289
686, 1276, 1269, 1268, 1275, 1297, 1290, 1289, 1296
687, 1270, 1263, 1262, 1269, 1291, 1284, 1283, 1290
688, 1277, 1270, 1269, 1276, 1298, 1291, 1290, 1297
689, 1271, 1264, 1263, 1270, 1292, 1285, 1284, 1291
690, 1278, 1271, 1270, 1277, 1299, 1292, 1291, 1298
691, 1272, 1265, 1264, 1271, 1293, 1286, 1285, 1292
692, 1279, 1272, 1271, 1278, 1300, 1293, 1292, 1299
693, 1273, 1266, 1265, 1272, 1294, 1287, 1286, 1293
694, 1280, 1273, 1272, 1279, 1301, 1294, 1293, 1300
695, 1274, 1267, 1266, 1273, 1295, 1288, 1287, 1294
696, 1281, 1274, 1273, 1280, 1302, 1295, 1294, 1301
697, 1290, 1283, 1282, 1289, 1311, 1304, 1303, 1310
698, 1297, 1290, 1289, 1296, 1318, 1311, 1310, 1317
699, 1291, 1284, 1283, 1290, 1312, 1305, 1304, 1311
700, 1298, 1291, 1290, 1297, 1319, 1312, 1311, 1318
701, 1292, 1285, 1284, 1291, 1313, 1306, 1305, 1312
702, 1299, 1292, 1291, 1298, 1320, 1313, 1312, 1319
703, 1293, 1286, 1285, 1292, 1314, 1307, 1306, 1313
704, 1300, 1293, 1292, 1299, 1321, 1314, 1313, 1320
705, 1294, 1287, 1286, 1293, 1315, 1308, 1307, 1314
706, 1301, 1294, 1293, 1300, 1322, 1315, 1314, 1321
707, 1295, 1288, 1287, 1294, 1316, 1309, 1308, 1315
708, 1302, 1295, 1294, 1301, 1323, 1316, 1315, 1322
709, 1311, 1304, 1303, 1310, 1332, 1325, 1324, 1331
710, 1318, 1311, 1310, 1317, 1339, 1332, 1331, 1338
711, 1312, 1305, 1304, 1311, 1333, 1326, 1325, 1332
712, 1319, 1312, 1311, 1318, 1340, 1333, 1332, 1339
713, 1313, 1306, 1305, 1312, 1334, 1327, 1326, 1333
714, 1320, 1313, 1312, 1319, 1341, 1334, 1333, 1340
715, 1314, 1307, 1306, 1313, 1335, 1328, 1327, 1334
716, 1321, 1314, 1313, 1320, 1342, 1335, 1334, 1341
717, 1315, 1308, 1307, 1314, 1336, 1329, 1328, 1335
718, 1322, 1315, 1314, 1321, 1343, 1336, 1335, 1342
719, 1316, 1309, 1308, 1315, 1337, 1330, 1329, 1336
720, 1323, 1316, 1315, 1322, 1344, 1337, 1336, 1343
721, 1332, 1325, 1324, 1331, 1353, 1346, 1345, 1352
722, 1339, 1332, 1331, 1338, 1360, 1353, 1352, 1359
723, 1333, 1326, 1325, 1332, 1354, 1347, 1346, 1353
724, 1340, 1333, 1332, 1339, 1361, 1354, 1353, 1360
725, 1334, 1327, 1326, 1333, 1355, 1348, 1347, 1354
726, 1341, 1334, 1333, 1340, 1362, 1355, 1354, 1361
727, 1335, 1328, 1327, 1334, 1356, 1349, 1348, 1355
728, 1342, 1335, 1334, 1341, 1363, 1356, 1355, 1362
729, 1336, 1329, 1328, 1335, 1357, 1350, 1349, 1356
730, 1343, 1336, 1335, 1342, 1364, 1357, 1356, 1363
731, 1337, 1330, 1329, 1336, 1358, 1351, 1350, 1357
732, 1344, 1337, 1336, 1343, 1365, 1358, 1357, 1364
733, 1353, 1346, 1345, 1352, 1374, 1367, 1366, 1373
734, 1360, 1353, 1352, 1359, 1381, 1374, 1373, 1380
735, 1354, 1347, 1346, 1353, 1375, 1368, 1367, 1374
736, 1361, 1354, 1353, 1360, 1382, 1375, 1374, 1381
737, 1355, 1348, 1347, 1354, 1376, 1369, 1368, 1375
738, 1362, 1355, 1354, 1361, 1383, 1376, 1375, 1382
739, 1356, 1349, 1348, 1355, 1377, 1370, 1369, 1376
740, 1363, 1356, 1355, 1362, 1384, 1377, 1376, 1383
741, 1357, 1350, 1349, 1356, 1378, 1371, 1370, 1377
742, 1364, 1357, 1356, 1363, 1385, 1378, 1377, 1384
743, 1358, 1351, 1350, 1357, 1379, 1372, 1371, 1378
744, 1365, 1358, 1357, 1364, 1386, 1379, 1378, 1385
745, 1374, 1367, 1366, 1373, 1395, 1388, 1387, 1394
746, 1381, 1374, 1373, 1380, 1402, 1395, 1394, 1401
747, 1375, 1368, 1367, 1374, 1396, 1389, 1388, 1395
748, 1382, 1375, 1374, 1381, 1403, 1396, 1395, 1402
749, 1376, 1369, 1368, 1375, 1397, 1390, 1389, 1396
750, 1383, 1376, 1375, 1382, 1404, 1397, 1396, 1403
751, 1377, 1370, 1369, 1376, 1398, 1391, 1390, 1397
752, 1384, 1377, 1376, 1383, 1405, 1398, 1397, 1404
753, 1378, 1371, 1370, 1377, 1399, 1392, 1391, 1398
754, 1385, 1378, 1377, 1384, 1406, 1399, 1398, 1405
755, 1379, 1372, 1371, 1378, 1400, 1393, 1392, 1399
756, 1386, 1379, 1378, 1385, 1407, 1400, 1399, 1406
757, 1395, 1388, 1387, 1394, 1416, 1409, 1408, 1415
758, 1402, 1395, 1394, 1401, 1423, 1416, 1415, 1422
759, 1396, 1389, 1388, 1395, 1417, 1410, 1409, 1416
760, 1403, 1396, 1395, 1402, 1424, 1417, 1416, 1423
761, 1397, 1390, 1389, 1396, 1418, 1411, 1410, 1417
762, 1404, 1397, 1396, 1403, 1425, 1418, 1417, 1424
763, 1398, 1391, 1390, 1397, 1419, 1412, 1411, 1418
764, 1405, 1398, 1397, 1404, 1426, 1419, 1418, 1425
765, 1399, 1392, 1391, 1398, 1420, 1413, 1412, 1419
766, 1406, 1399, 1398, 1405, 1427, 1420, 1419, 1426
767, 1400, 1393, 1392, 1399, 1421, 1414, 1413, 1420
768, 1407, 1400, 1399, 1406, 1428, 1421, 1420, 1427
769, 1416, 1409, 1408, 1415, 1437, 1430, 1429, 1436
770, 1423, 1416, 1415, 1422, 1444, 1437, 1436, 1443
771, 1417, 1410, 1409, 1416, 1438, 1431, 1430, 1437
772, 1424, 1417, 1416, 1423, 1445, 1438, 1437, 1444
773, 1418, 1411, 1410, 1417, 1439, 1432, 1431, 1438
774, 1425, 1418, 1417, 1424, 1446, 1439, 1438, 1445
775, 1419, 1412, 1411, 1418, 1440, 1433, 1432, 1439
776, 1426, 1419, 1418, 1425, 1447, 1440, 1439, 1446
777, 1420, 1413, 1412, 1419, 1441, 1434, 1433, 1440
778, 1427, 1420, 1419, 1426, 1448, 1441, 1440, 1447
779, 1421, 1414, 1413, 1420, 1442, 1435, 1434, 1441
780, 1428, 1421, 1420, 1427, 1449, 1442, 1441, 1448
781, 1437, 1430, 1429, 1436, 1458, 1451, 1450, 1457
782, 1444, 1437, 1436, 1443, 1465, 1458, 1457, 1464
783, 1438, 1431, 1430, 1437, 1459, 1452, 1451, 1458
784, 1445, 1438, 1437, 1444, 1466, 1459, 1458, 1465
785, 1439, 1432, 1431, 1438, 1460, 1453, 1452, 1459
786, 1446, 1439, 1438, 1445, 1467, 1460, 1459, 1466
787, 1440, 1433, 1432, 1439, 1461, 1454, 1453, 1460
788, 1447, 1440, 1439, 1446, 1468, 1461, 1460, 1467
789, 1441, 1434, 1433, 1440, 1462, 1455, 1454, 1461
790, 1448, 1441, 1440, 1447, 1469, 1462, 1461, 1468
791, 1442, 1435, 1434, 1441, 1463, 1456, 1455, 1462
792, 1449, 1442, 1441, 1448, 1470, 1463, 1462, 1469
793, 1458, 1451, 1450, 1457, 1479, 1472, 1471, 1478
794, 1465, 1458, 1457, 1464, 1486, 1479, 1478, 1485
795, 1459, 1452, 1451, 1458, 1480, 1473, 1472, 1479
796, 1466, 1459, 1458, 1465, 1487, 1480, 1479, 1486
797, 1460, 1453, 1452, 1459, 1481, 1474, 1473, 1480
798, 1467, 1460, 1459, 1466, 1488, 1481, 1480, 1487
799, 1461, 1454, 1453, 1460, 1482, 1475, 1474, 1481
800, 1468, 1461, 1460, 1467, 1489, 1482, 1481, 1488
801, 1462, 1455, 1454, 1461, 1483, 1476, 1475, 1482
802, 1469, 1462, 1461, 1468, 1490, 1483, 1482, 1489
803, 1463, 1456, 1455, 1462, 1484, 1477, 1476, 1483
804, 1470, 1463, 1462, 1469, 1491, 1484, 1483, 1490
805, 1479, 1472, 1471, 1478, 1500, 1493, 1492, 1499
806, 1486, 1479, 1478, 1485, 1507, 1500, 1499, 1506
807, 1480, 1473, 1472, 1479, 1501, 1494, 1493, 1500
808, 1487, 1480, 1479, 1486, 1508, 1501, 1500, 1507
809, 1481, 1474, 1473, 1480, 1502, 1495, 1494, 1501
810, 1488, 1481, 1480, 1487, 1509, 1502, 1501, 1508
811, 1482, 1475, 1474, 1481, 1503, 1496, 1495, 1502
812, 1489, 1482, 1481, 1488, 1510, 1503, 1502, 1509
813, 1483, 1476, 1475, 1482, 1504, 1497, 1496, 1503
814, 1490, 1483, 1482, 1489, 1511, 1504, 1503, 1510
815, 1484, 1477, 1476, 1483, 1505, 1498, 1497, 1504
816, 1491, 1484, 1483, 1490, 1512, 1505, 1504, 1511
817, 1500, 1493, 1492, 1499, 1521, 1514, 1513, 1520
818, 1507, 1500, 1499, 1506, 1528, 1521, 1520, 1527
819, 1501, 1494, 1493, 1500, 1522, 1515, 1514, 1521
820, 1508, 1501, 1500, 1507, 1529, 1522, 1521, 1528
821, 1502, 1495, 1494, 1501, 1523, 1516, 1515, 1522
822, 1509, 1502, 1501, 1508, 1530, 1523, 1522, 1529
823, 1503, 1496, 1495, 1502, 1524, 1517, 1516, 1523
824, 1510, 1503, 1502, 1509, 1531, 1524, 1523, 1530
825, 1504, 1497, 1496, 1503, 1525, 1518, 1517, 1524
826, 1511, 1504, 1503, 1510, 1532, 1525, 1524, 1531
827, 1505, 1498, 1497, 1504, 1526, 1519, 1518, 1525
828, 1512, 1505, 1504, 1511, 1533, 1526, 1525, 1532
829, 1521, 1514, 1513, 1520, 1542, 1535, 1534, 1541
830, 1528, 1521, 1520, 1527, 1549, 1542, 1541, 1548
831, 1522, 1515, 1514, 1521, 1543, 1536, 1535, 1542
832, 1529, 1522, 1521, 1528, 1550, 1543, 1542, 1549
833, 1523, 1516, 1515, 1522, 1544, 1537, 1536, 1543
834, 1530, 1523, 1522, 1529, 1551, 1544, 1543, 1550
835, 1524, 1517, 1516, 1523, 1545, 1538, 1537, 1544
836, 1531, 1524, 1523, 1530, 1552, 1545, 1544, 1551
837, 1525, 1518, 1517, 1524, 1546, 1539, 1538, 1545
838, 1532, 1525, 1524, 1531, 1553, 1546, 1545, 1552
839, 1526, 1519, 1518, 1525, 1547, 1540, 1539, 1546
840, 1533, 1526, 1525, 1532, 1554, 1547, 1546, 1553
841, 1542, 1535, 1534, 1541, 1563, 1556, 1555, 1562
842, 1549, 1542, 1541, 1548, 1570, 1563, 1562, 1569
843, 1543, 1536, 1535, 1542, 1564, 1557, 1556, 1563
844, 1550, 1543, 1542, 1549, 1571, 1564, 1563, 1570
845, 1544, 1537, 1536, 1543, 1565, 1558, 1557, 1564
846, 1551, 1544, 1543, 1550, 1572, 1565, 1564, 1571
847, 1545, 1538, 1537, 1544, 1566, 1559, 1558, 1565
848, 1552, 1545, 1544, 1551, 1573, 1566, 1565, 1572
849, 1546, 1539, 1538, 1545, 1567, 1560, 1559, 1566
850, 1553, 1546, 1545, 1552, 1574, 1567, 1566, 1573
851, 1547, 1540, 1539, 1546, 1568, 1561, 1560, 1567
852, 1554, 1547, 1546, 1553, 1575, 1568, 1567, 1574
853, 1563, 1556, 1555, 1562, 1584, 1577, 1576, 1583
854, 1570, 1563, 1562, 1569, 1591, 1584, 1583, 1590
855, 1564, 1557, 1556, 1563, 1585, 1578, 1577, 1584
856, 1571, 1564, 1563, 1570, 1592, 1585, 1584, 1591
857, 1565, 1558, 1557, 1564, 1586, 1579, 1578, 1585
858, 1572, 1565, 1564, 1571, 1593, 1586, 1585, 1592
859, 1566, 1559, 1558, 1565, 1587, 1580, 1579, 1586
860, 1573, 1566, 1565, 1572, 1594, 1587, 1586, 1593
861, 1567, 1560, 1559, 1566, 1588, 1581, 1580, 1587
862, 1574, 1567, 1566, 1573, 1595, 1588, 1587, 1594
863, 1568, 1561, 1560, 1567, 1589, 1582, 1581, 1588
864, 1575, 1568, 1567, 1574, 1596, 1589, 1588, 1595
865, 1605, 1598, 1597, 1604, 1626, 1619, 1618, 1625
866, 1612, 1605, 1604, 1611, 1633, 1626, 1625, 1632
867, 1606, 1599, 1598, 1605, 1627, 1620, 1619, 1626
868, 1613, 1606, 1605, 1612, 1634, 1627, 1626, 1633
869, 1607, 1600, 1599, 1606, 1628, 1621, 1620, 1627
870, 1614, 1607, 1606, 1613, 1635, 1628, 1627, 1634
871, 1608, 1601, 1600, 1607, 1629, 1622, 1621, 1628
872, 1615, 1608, 1607, 1614, 1636, 1629, 1628, 1635
873, 1609, 1602, 1601, 1608, 1630, 1623, 1622, 1629
874, 1616, 1609, 1608, 1615, 1637, 1630, 1629, 1636
875, 1610, 1603, 1602, 1609, 1631, 1624, 1623, 1630
876, 1617, 1610, 1609, 1616, 1638, 1631, 1630, 1637
877, 1626, 1619, 1618, 1625, 1647, 1640, 1639, 1646
878, 1633, 1626, 1625, 1632, 1654, 1647, 1646, 1653
879, 1627, 1620, 1619, 1626, 1648, 1641, 1640, 1647
880, 1634, 1627, 1626, 1633, 1655, 1648, 1647, 1654
881, 1628, 1621, 1620, 1627, 1649, 1642, 1641, 1648
882, 1635, 1628, 1627, 1634, 1656, 1649, 1648, 1655
883, 1629, 1622, 1621, 1628, 1650, 1643, 1642, 1649
884, 1636, 1629, 1628, 1635, 1657, 1650, 1649, 1656
885, 1630, 1623, 1622, 1629, 1651, 1644, 1643, 1650
886, 1637, 1630, 1629, 1636, 1658, 1651, 1650, 1657
887, 1631, 1624, 1623, 1630, 1652, 1645, 1644, 1651
888, 1638, 1631, 1630, 1637, 1659, 1652, 1651, 1658
889, 1647, 1640, 1639, 1646, 1668, 1661, 1660, 1667
890, 1654, 1647, 1646, 1653, 1675, 1668, 1667, 1674
891, 1648, 1641, 1640, 1647, 1669, 1662, 1661, 1668
892, 1655, 1648, 1647, 1654, 1676, 1669, 1668, 1675
893, 1649, 1642, 1641, 1648, 1670, 1663, 1662, 1669
894, 1656, 1649, 1648, 1655, 1677, 1670, 1669, 1676
895, 1650, 1643, 1642, 1649, 1671, 1664, 1663, 1670
896, 1657, 1650, 1649, 1656, 1678, 1671, 1670, 1677
897, 1651, 1644, 1643, 1650, 1672, 1665, 1664, 1671
898, 1658, 1651, 1650, 1657, 1679, 1672, 1671, 1678
899, 1652, 1645, 1644, 1651, 1673, 1666, 1665, 1672
900, 1659, 1652, 1651, 1658, 1680, 1673, 1672, 1679
901, 1668, 1661, 1660, 1667, 1689, 1682, 1681, 1688
902, 1675, 1668, 1667, 1674, 1696, 1689, 1688, 1695
903, 1669, 1662, 1661, 1668, 1690, 1683, 1682, 1689
904, 1676, 1669, 1668, 1675, 1697, 1690, 1689, 1696
905, 1670, 1663, 1662, 1669, 1691, 1684, 1683, 1690
906, 1677, 1670, 1669, 1676, 1698, 1691, 1690, 1697
907, 1671, 1664, 1663, 1670, 1692, 1685, 1684, 1691
908, 1678, 1671, 1670, 1677, 1699, 1692, 1691, 1698
909, 1672, 1665, 1664, 1671, 1693, 1686, 1685, 1692
910, 1679, 1672, 1671, 1678, 1700, 1693, 1692, 1699
911, 1673, 1666, 1665, 1672, 1694, 1687, 1686, 1693
912, 1680, 1673, 1672, 1679, 1701, 1694, 1693, 1700
913, 1689, 1682, 1681, 1688, 1710, 1703, 1702, 1709
914, 1696, 1689, 1688, 1695, 1717, 1710, 1709, 1716
915, 1690, 1683, 1682, 1689, 1711, 1704, 1703, 1710
916, 1697, 1690, 1689, 1696, 1718, 1711, 1710, 1717
917, 1691, 1684, 1683, 1690, 1712, 1705, 1704, 1711
918, 1698, 1691, 1690, 1697, 1719, 1712, 1711, 1718
919, 1692, 1685, 1684, 1691, 1713, 1706, 1705, 1712
920, 1699, 1692, 1691, 1698, 1720, 1713, 1712, 1719
921, 1693, 1686, 1685, 1692, 1714, 1707, 1706, 1713
922, 1700, 1693, 1692, 1699, 1721, 1714, 1713, 1720
923, 1694, 1687, 1686, 1693, 1715, 1708, 1707, 1714
924, 1701, 1694, 1693, 1700, 1722, 1715, 1714, 1721
925, 1710, 1703, 1702, 1709, 1731, 1724, 1723, 1730
926, 1717, 1710, 1709, 1716, 1738, 1731, 1730, 1737
927, 1711, 1704, 1703, 1710, 1732, 1725, 1724, 1731
928, 1718, 1711, 1710, 1717, 1739, 1732, 1731, 1738
929, 1712, 1705, 1704, 1711, 1733, 1726, 1725, 1732
930, 1719, 1712, 1711, 1718, 1740, 1733, 1732, 1739
931, 1713, 1706, 1705, 1712, 1734, 1727, 1726, 1733
932, 1720, 1713, 1712, 1719, 1741, 1734, 1733, 1740
933, 1714, 1707, 1706, 1713, 1735, 1728, 1727, 1734
934, 1721, 1714, 1713, 1720, 1742, 1735, 1734, 1741
935, 1715, 1708, 1707, 1714, 1736, 1729, 1728, 1735
936, 1722, 1715, 1714, 1721, 1743, 1736, 1735, 1742
937, 1731, 1724, 1723, 1730, 1752, 1745, 1744, 1751
938, 1738, 1731, 1730, 1737, 1759, 1752, 1751, 1758
939, 1732, 1725, 1724, 1731, 1753, 1746, 1745, 1752
940, 1739, 1732, 1731, 1738, 1760, 1753, 1752, 1759
941, 1733, 1726, 1725, 1732, 1754, 1747, 1746, 1753
942, 1740, 1733, 1732, 1739, 1761, 1754, 1753, 1760
943, 1734, 1727, 1726, 1733, 1755, 1748, 1747, 1754
944, 1741, 1734, 1733, 1740, 1762, 1755, 1754, 1761
945, 1735, 1728, 1727, 1734, 1756, 1749, 1748, 1755
946, 1742, 1735, 1734, 1741, 1763, 1756, 1755, 1762
947, 1736, 1729, 1728, 1735, 1757, 1750, 1749, 1756
948, 1743, 1736, 1735, 1742, 1764, 1757, 1756, 1763
949, 1752, 1745, 1744, 1751, 1773, 1766, 1765, 1772
950, 1759, 1752, 1751, 1758, 1780, 1773, 1772, 1779
951, 1753, 1746, 1745, 1752, 1774, 1767, 1766, 1773
952, 1760, 1753, 1752, 1759, 1781, 1774, 1773, 1780
953, 1754, 1747, 1746, 1753, 1775, 1768, 1767, 1774
954, 1761, 1754, 1753, 1760, 1782, 1775, 1774, 1781
955, 1755, 1748, 1747, 1754, 1776, 1769, 1768, 1775
956, 1762, 1755, 1754, 1761, 1783, 1776, 1775, 1782
957, 1756, 1749, 1748, 1755, 1777, 1770, 1769, 1776
958, 1763, 1756, 1755, 1762, 1784, 1777, 1776, 1783
959, 1757, 1750, 1749, 1756, 1778, 1771, 1770, 1777
960, 1764, 1757, 1756, 1763, 1785, 1778, 1777, 1784
961, 1773, 1766, 1765, 1772, 1794, 1787, 1786, 1793
962, 1780, 1773, 1772, 1779, 1801, 1794, 1793, 1800
963, 1774, 1767, 1766, 1773, 1795, 1788, 1787, 1794
964, 1781, 1774, 1773, 1780, 1802, 1795, 1794, 1801
965, 1775, 1768, 1767, 1774, 1796, 1789, 1788, 1795
966, 1782, 1775, 1774, 1781, 1803, 1796, 1795, 1802
967, 1776, 1769, 1768, 1775, 1797, 1790, 1789, 1796
968, 1783, 1776, 1775, 1782, 1804, 1797, 1796, 1803
969, 1777, 1770, 1769, 1776, 1798, 1791, 1790, 1797
970, 1784, 1777, 1776, 1783, 1805, 1798, 1797, 1804
971, 1778, 1771, 1770, 1777, 1799, 1792, 1791, 1798
972, 1785, 1778, 1777, 1784, 1806, 1799, 1798, 1805
973, 1794, 1787, 1786, 1793, 1815, 1808, 1807, 1814
974, 1801, 1794, 1793, 1800, 1822, 1815, 1814, 1821
975, 1795, 1788, 1787, 1794, 1816, 1809, 1808, 1815
976, 1802, 1795, 1794, 1801, 1823, 1816, 1815, 1822
977, 1796, 1789, 1788, 1795, 1817, 1810, 1809, 1816
978, 1803, 1796, 1795, 1802, 1824, 1817, 1816, 1823
979, 1797, 1790, 1789, 1796, 1818, 1811, 1810, 1817
980, 1804, 1797, 1796, 1803, 1825, 1818, 1817, 1824
981, 1798, 1791, 1790, 1797, 1819, 1812, 1811, 1818
982, 1805, 1798, 1797, 1804, 1826, 1819, 1818, 1825
983, 1799, 1792, 1791, 1798, 1820, 1813, 1812, 1819
984, 1806, 1799, 1798, 1805, 1827, 1820, 1819, 1826
985, 1815, 1808, 1807, 1814, 1836, 1829, 1828, 1835
986, 1822, 1815, 1814, 1821, 1843, 1836, 1835, 1842
987, 1816, 1809, 1808, 1815, 1837, 1830, 1829, 1836
988, 1823, 1816, 1815, 1822, 1844, 1837, 1836, 1843
989, 1817, 1810, 1809, 1816, 1838, 1831, 1830, 1837
990, 1824, 1817, 1816, 1823, 1845, 1838, 1837, 1844
991, 1818, 1811, 1810, 1817, 1839, 1832, 1831, 1838
992, 1825, 1818, 1817, 1824, 1846, 1839, 1838, 1845
993, 1819, 1812, 1811, 1818, 1840, 1833, 1832, 1839
994, 1826, 1819, 1818, 1825, 1847, 1840, 1839, 1846
995, 1820, 1813, 1812, 1819, 1841, 1834, 1833, 1840
996, 1827, 1820, 1819, 1826, 1848, 1841, 1840, 1847
997, 1836, 1829, 1828, 1835, 1857, 1850, 1849, 1856
998, 1843, 1836, 1835, 1842, 1864, 1857, 1856, 1863
999, 1837, 1830, 1829, 1836, 1858, 1851, 1850, 1857
1000, 1844, 1837, 1836, 1843, 1865, 1858, 1857, 1864
1001, 1838, 1831, 1830, 1837, 1859, 1852, 1851, 1858
1002, 1845, 1838, 1837, 1844, 1866, 1859, 1858, 1865
1003, 1839, 1832, 1831, 1838, 1860, 1853, 1852, 1859
1004, 1846, 1839, 1838, 1845, 1867, 1860, 1859, 1866
1005, 1840, 1833, 1832, 1839, 1861, 1854, 1853, 1860
1006, 1847, 1840, 1839, 1846, 1868, 1861, 1860, 1867
1007, 1841, 1834, 1833, 1840, 1862, 1855, 1854, 1861
1008, 1848, 1841, 1840, 1847, 1869, 1862, 1861, 1868
1009, 1857, 1850, 1849, 1856, 1878, 1871, 1870, 1877
1010, 1864, 1857, 1856, 1863, 1885, 1878, 1877, 1884
1011, 1858, 1851, 1850, 1857, 1879, 1872, 1871, 1878
1012, 1865, 1858, 1857, 1864, 1886, 1879, 1878, 1885
1013, 1859, 1852, 1851, 1858, 1880, 1873, 1872, 1879
1014, 1866, 1859, 1858, 1865, 1887, 1880, 1879, 1886
1015, 1860, 1853, 1852, 1859, 1881, 1874, 1873, 1880
1016, 1867, 1860, 1859, 1866, 1888, 1881, 1880, 1887
1017, 1861, 1854, 1853, 1860, 1882, 1875, 1874, 1881
1018, 1868, 1861, 1860, 1867, 1889, 1882, 1881, 1888
1019, 1862, 1855, 1854, 1861, 1883, 1876, 1875, 1882
1020, 1869, 1862, 1861, 1868, 1890, 1883, 1882, 1889
1021, 1878, 1871, 1870, 1877, 1899, 1892, 1891, 1898
1022, 1885, 1878, 1877, 1884, 1906, 1899, 1898, 1905
1023, 1879, 1872, 1871, 1878, 1900, 1893, 1892, 1899
1024, 1886, 1879, 1878, 1885, 1907, 1900, 1899, 1906
1025, 1880, 1873, 1872, 1879, 1901, 1894, 1893, 1900
1026, 1887, 1880, 1879, 1886, 1908, 1901, 1900, 1907
1027, 1881, 1874, 1873, 1880, 1902, 1895, 1894, 1901
1028, 1888, 1881, 1880, 1887, 1909, 1902, 1901, 1908
1029, 1882, 1875, 1874, 1881, 1903, 1896, 1895, 1902
1030, 1889, 1882, 1881, 1888, 1910, 1903, 1902, 1909
1031, 1883, 1876, 1875, 1882, 1904, 1897, 1896, 1903
1032, 1890, 1883, 1882, 1889, 1911, 1904, 1903, 1910
1033, 1899, 1892, 1891, 1898, 1920, 1913, 1912, 1919
1034, 1906, 1899, 1898, 1905, 1927, 1920, 1919, 1926
1035, 1900, 1893, 1892, 1899, 1921, 1914, 1913, 1920
1036, 1907, 1900, 1899, 1906, 1928, 1921, 1920, 1927
1037, 1901, 1894, 1893, 1900, 1922, 1915, 1914, 1921
1038, 1908, 1901, 1900, 1907, 1929, 1922, 1921, 1928
1039, 1902, 1895, 1894, 1901, 1923, 1916, 1915, 1922
1040, 1909, 1902, 1901, 1908, 1930, 1923, 1922, 1929
1041, 1903, 1896, 1895, 1902, 1924, 1917, 1916, 1923
1042, 1910, 1903, 1902, 1909, 1931, 1924, 1923, 1930
1043, 1904, 1897, 1896, 1903, 1925, 1918, 1917, 1924
1044, 1911, 1904, 1903, 1910, 1932, 1925, 1924, 1931
1045, 1920, 1913, 1912, 1919, 1941, 1934, 1933, 1940
1046, 1927, 1920, 1919, 1926, 1948, 1941, 1940, 1947
1047, 1921, 1914, 1913, 1920, 1942, 1935, 1934, 1941
1048, 1928, 1921, 1920, 1927, 1949, 1942, 1941, 1948
1049, 1922, 1915, 1914, 1921, 1943, 1936, 1935, 1942
1050, 1929, 1922, 1921, 1928, 1950, 1943, 1942, 1949
1051, 1923, 1916, 1915, 1922, 1944, 1937, 1936, 1943
1052, 1930, 1923, 1922, 1929, 1951, 1944, 1943, 1950
1053, 1924, 1917, 1916, 1923, 1945, 1938, 1937, 1944
1054, 1931, 1924, 1923, 1930, 1952, 1945, 1944, 1951
1055, 1925, 1918, 1917, 1924, 1946, 1939, 1938, 1945
1056, 1932, 1925, 1924, 1931, 1953, 1946, 1945, 1952
1057, 1941, 1934, 1933, 1940, 1962, 1955, 1954, 1961
1058, 1948, 1941, 1940, 1947, 1969, 1962, 1961, 1968
1059, 1942, 1935, 1934, 1941, 1963, 1956, 1955, 1962
1060, 1949, 1942, 1941, 1948, 1970, 1963, 1962, 1969
1061, 1943, 1936, 1935, 1942, 1964, 1957, 1956, 1963
1062, 1950, 1943, 1942, 1949, 1971, 1964, 1963, 1970
1063, 1944, 1937, 1936, 1943, 1965, 1958, 1957, 1964
1064, 1951, 1944, 1943, 1950, 1972, 1965, 1964, 1971
1065, 1945, 1938, 1937, 1944, 1966, 1959, 1958, 1965
1066, 1952, 1945, 1944, 1951, 1973, 1966, 1965, 1972
1067, 1946, 1939, 1938, 1945, 1967, 1960, 1959, 1966
1068, 1953, 1946, 1945, 1952, 1974, 1967, 1966, 1973
1069, 1962, 1955, 1954, 1961, 1983, 1976, 1975, 1982
1070, 1969, 1962, 1961, 1968, 1990, 1983, 1982, 1989
1071, 1963, 1956, 1955, 1962, 1984, 1977, 1976, 1983
1072, 1970, 1963, 1962, 1969, 1991, 1984, 1983, 1990
1073, 1964, 1957, 1956, 1963, 1985, 1978, 1977, 1984
1074, 1971, 1964, 1963, 1970, 1992, 1985, 1984, 1991
1075, 1965, 1958, 1957, 1964, 1986, 1979, 1978, 1985
1076, 1972, 1965, 1964, 1971, 1993, 1986, 1985, 1992
1077, 1966, 1959, 1958, 1965, 1987, 1980, 1979, 1986
1078, 1973, 1966, 1965, 1972, 1994, 1987, 1986, 1993
1079, 1967, 1960, 1959, 1966, 1988, 1981, 1980, 1987
1080, 1974, 1967, 1966, 1973, 1995, 1988, 1987, 1994
1081, 2004, 1997, 1996, 2003, 2025, 2018, 2017, 2024
1082, 2011, 2004, 2003, 2010, 2032, 2025, 2024, 2031
1083, 2005, 1998, 1997, 2004, 2026, 2019, 2018, 2025
1084, 2012, 2005, 2004, 2011, 2033, 2026, 2025, 2032
1085, 2006, 1999, 1998, 2005, 2027, 2020, 2019, 2026
1086, 2013, 2006, 2005, 2012, 2034, 2027, 2026, 2033
1087, 2007, 2000, 1999, 2006, 2028, 2021, 2020, 2027
1088, 2014, 2007, 2006, 2013, 2035, 2028, 2027, 2034
1089, 2008, 2001, 2000, 2007, 2029, 2022, 2021, 2028
1090, 2015, 2008, 2007, 2014, 2036, 2029, 2028, 2035
1091, 2009, 2002, 2001, 2008, 2030, 2023, 2022, 2029
1092, 2016, 2009, 2008, 2015, 2037, 2030, 2029, 2036
1093, 2025, 2018, 2017, 2024, 2046, 2039, 2038, 2045
1094, 2032, 2025, 2024, 2031, 2053, 2046, 2045, 2052
1095, 2026, 2019, 2018, 2025, 2047, 2040, 2039, 2046
1096, 2033, 2026, 2025, 2032, 2054, 2047, 2046, 2053
1097, 2027, 2020, 2019, 2026, 2048, 2041, 2040, 2047
1098, 2034, 2027, 2026, 2033, 2055, 2048, 2047, 2054
1099, 2028, 2021, 2020, 2027, 2049, 2042, 2041, 2048
1100, 2035, 2028, 2027, 2034, 2056, 2049, 2048, 2055
1101, 2029, 2022, 2021, 2028, 2050, 2043, 2042, 2049
1102, 2036, 2029, 2028, 2035, 2057, 2050, 2049, 2056
1103, 2030, 2023, 2022, 2029, 2051, 2044, 2043, 2050
1104, 2037, 2030, 2029, 2036, 2058, 2051, 2050, 2057
1105, 2046, 2039, 2038, 2045, 2067, 2060, 2059, 2066
1106, 2053, 2046, 2045, 2052, 2074, 2067, 2066, 2073
1107, 2047, 2040, 2039, 2046, 2068, 2061, 2060, 2067
1108, 2054, 2047, 2046, 2053, 2075, 2068, 2067, 2074
1109, 2048, 2041, 2040, 2047, 2069, 2062, 2061, 2068
1110, 2055, 2048, 2047, 2054, 2076, 2069, 2068, 2075
1111, 2049, 2042, 2041, 2048, 2070, 2063, 2062, 2069
1112, 2056, 2049, 2048, 2055, 2077, 2070, 2069, 2076
1113, 2050, 2043, 2042, 2049, 2071, 2064, 2063, 2070
1114, 2057, 2050, 2049, 2056, 2078, 2071, 2070, 2077
1115, 2051, 2044, 2043, 2050, 2072, 2065, 2064, 2071
1116, 2058, 2051, 2050, 2057, 2079, 2072, 2071, 2078
1117, 2067, 2060, 2059, 2066, 2088, 2081, 2080, 2087
1118, 2074, 2067, 2066, 2073, 2095, 2088, 2087, 2094
1119, 2068, 2061, 2060, 2067, 2089, 2082, 2081, 2088
1120, 2075, 2068, 2067, 2074, 2096, 2089, 2088, 2095
1121, 2069, 2062, 2061, 2068, 2090, 2083, 2082, 2089
1122, 2076, 2069, 2068, 2075, 2097, 2090, 2089, 2096
1123, 2070, 2063, 2062, 2069, 2091, 2084, 2083, 2090
1124, 2077, 2070, 2069, 2076, 2098, 2091, 2090, 2097
1125, 2071, 2064, 2063, 2070, 2092, 2085, 2084, 2091
1126, 2078, 2071, 2070, 2077, 2099, 2092, 2091, 2098
1127, 2072, 2065, 2064, 2071, 2093, 2086, 2085, 2092
1128, 2079, 2072, 2071, 2078, 2100, 2093, 2092, 2099
1129, 2088, 2081, 2080, 2087, 2109, 2102, 2101, 2108
1130, 2095, 2088, 2087, 2094, 2116, 2109, 2108, 2115
1131, 2089, 2082, 2081, 2088, 2110, 2103, 2102, 2109
1132, 2096, 2089, 2088, 2095, 2117, 2110, 2109, 2116
1133, 2090, 2083, 2082, 2089, 2111, 2104, 2103, 2110
1134, 2097, 2090, 2089, 2096, 2118, 2111, 2110, 2117
1135, 2091, 2084, 2083, 2090, 2112, 2105, 2104, 2111
1136, 2098, 2091, 2090, 2097, 2119, 2112, 2111, 2118
1137, 2092, 2085, 2084, 2091, 2113, 2106, 2105, 2112
1138, 2099, 2092, 2091, 2098, 2120, 2113, 2112, 2119
1139, 2093, 2086, 2085, 2092, 2114, 2107, 2106, 2113
1140, 2100, 2093, 2092, 2099, 2121, 2114, 2113, 2120
1141, 2109, 2102, 2101, 2108, 2130, 2123, 2122, 2129
1142, 2116, 2109, 2108, 2115, 2137, 2130, 2129, 2136
1143, 2110, 2103, 2102, 2109, 2131, 2124, 2123, 2130
1144, 2117, 2110, 2109, 2116, 2138, 2131, 2130, 2137
1145, 2111, 2104, 2103, 2110, 2132, 2125, 2124, 2131
1146, 2118, 2111, 2110, 2117, 2139, 2132, 2131, 2138
1147, 2112, 2105, 2104, 2111, 2133, 2126, 2125, 2132
1148, 2119, 2112, 2111, 2118, 2140, 2133, 2132, 2139
1149, 2113, 2106, 2105, 2112, 2134, 2127, 2126, 2133
1150, 2120, 2113, 2112, 2119, 2141, 2134, 2133, 2140
1151, 2114, 2107, 2106, 2113, 2135, 2128, 2127, 2134
1152, 2121, 2114, 2113, 2120, 2142, 2135, 2134, 2141
1153, 2130, 2123, 2122, 2129, 2151, 2144, 2143, 2150
1154, 2137, 2130, 2129, 2136, 2158, 2151, 2150, 2157
1155, 2131, 2124, 2123, 2130, 2152, 2145, 2144, 2151
1156, 2138, 2131, 2130, 2137, 2159, 2152, 2151, 2158
1157, 2132, 2125, 2124, 2131, 2153, 2146, 2145, 2152
1158, 2139, 2132, 2131, 2138, 2160, 2153, 2152, 2159
1159, 2133, 2126, 2125, 2132, 2154, 2147, 2146, 2153
1160, 2140, 2133, 2132, 2139, 2161, 2154, 2153, 2160
1161, 2134, 2127, 2126, 2133, 2155, 2148, 2147, 2154
1162, 2141, 2134, 2133, 2140, 2162, 2155, 2154, 2161
1163, 2135, 2128, 2127, 2134, 2156, 2149, 2148, 2155
1164, 2142, 2135, 2134, 2141, 2163, 2156, 2155, 2162
1165, 2151, 2144, 2143, 2150, 2172, 2165, 2164, 2171
1166, 2158, 2151, 2150, 2157, 2179, 2172, 2171, 2178
1167, 2152, 2145, 2144, 2151, 2173, 2166, 2165, 2172
1168, 2159, 2152, 2151, 2158, 2180, 2173, 2172, 2179
1169, 2153, 2146, 2145, 2152, 2174, 2167, 2166, 2173
1170, 2160, 2153, 2152, 2159, 2181, 2174, 2173, 2180
1171, 2154, 2147, 2146, 2153, 2175, 2168, 2167, 2174
1172, 2161, 2154, 2153, 2160, 2182, 2175, 2174, 2181
1173, 2155, 2148, 2147, 2154, 2176, 2169, 2168, 2175
1174, 2162, 2155, 2154, 2161, 2183, 2176, 2175, 2182
1175, 2156, 2149, 2148, 2155, 2177, 2170, 2169, 2176
1176, 2163, 2156, 2155, 2162, 2184, 2177, 2176, 2183
1177, 2172, 2165, 2164, 2171, 2193, 2186, 2185, 2192
1178, 2179, 2172, 2171, 2178, 2200, 2193, 2192, 2199
1179, 2173, 2166, 2165, 2172, 2194, 2187, 2186, 2193
1180, 2180, 2173, 2172, 2179, 2201, 2194, 2193, 2200
1181, 2174, 2167, 2166, 2173, 2195, 2188, 2187, 2194
1182, 2181, 2174, 2173, 2180, 2202, 2195, 2194, 2201
1183, 2175, 2168, 2167, 2174, 2196, 2189, 2188, 2195
1184, 2182, 2175, 2174, 2181, 2203, 2196, 2195, 2202
1185, 2176, 2169, 2168, 2175, 2197, 2190, 2189, 2196
1186, 2183, 2176, 2175, 2182, 2204, 2197, 2196, 2203
1187, 2177, 2170, 2169, 2176, 2198, 2191, 2190, 2197
1188, 2184, 2177, 2176, 2183, 2205, 2198, 2197, 2204
1189, 2193, 2186, 2185, 2192, 2214, 2207, 2206, 2213
1190, 2200, 2193, 2192, 2199, 2221, 2214, 2213, 2220
1191, 2194, 2187, 2186, 2193, 2215, 2208, 2207, 2214
1192, 2201, 2194, 2193, 2200, 2222, 2215, 2214, 2221
1193, 2195, 2188, 2187, 2194, 2216, 2209, 2208, 2215
1194, 2202, 2195, 2194, 2201, 2223, 2216, 2215, 2222
1195, 2196, 2189, 2188, 2195, 2217, 2210, 2209, 2216
1196, 2203, 2196, 2195, 2202, 2224, 2217, 2216, 2223
1197, 2197, 2190, 2189, 2196, 2218, 2211, 2210, 2217
1198, 2204, 2197, 2196, 2203, 2225, 2218, 2217, 2224
1199, 2198, 2191, 2190, 2197, 2219, 2212, 2211, 2218
1200, 2205, 2198, 2197, 2204, 2226, 2219, 2218, 2225
1201, 2214, 2207, 2206, 2213, 2235, 2228, 2227, 2234
1202, 2221, 2214, 2213, 2220, 2242, 2235, 2234, 2241
1203, 2215, 2208, 2207, 2214, 2236, 2229, 2228, 2235
1204, 2222, 2215, 2214, 2221, 2243, 2236, 2235, 2242
1205, 2216, 2209, 2208, 2215, 2237, 2230, 2229, 2236
1206, 2223, 2216, 2215, 2222, 2244, 2237, 2236, 2243
1207, 2217, 2210, 2209, 2216, 2238, 2231, 2230, 2237
1208, 2224, 2217, 2216, 2223, 2245, 2238, 2237, 2244
1209, 2218, 2211, 2210, 2217, 2239, 2232, 2231, 2238
1210, 2225, 2218, 2217, 2224, 2246, 2239, 2238, 2245
1211, 2219, 2212, 2211, 2218, 2240, 2233, 2232, 2239
1212, 2226, 2219, 2218, 2225, 2247, 2240, 2239, 2246
1213, 2235, 2228, 2227, 2234, 2256, 2249, 2248, 2255
1214, 2242, 2235, 2234, 2241, 2263, 2256, 2255, 2262
1215, 2236, 2229, 2228, 2235, 2257, 2250, 2249, 2256
1216, 2243, 2236, 2235, 2242, 2264, 2257, 2256, 2263
1217, 2237, 2230, 2229, 2236, 2258, 2251, 2250, 2257
1218, 2244, 2237, 2236, 2243, 2265, 2258, 2257, 2264
1219, 2238, 2231, 2230, 2237, 2259, 2252, 2251, 2258
1220, 2245, 2238, 2237, 2244, 2266, 2259, 2258, 2265
1221, 2239, 2232, 2231, 2238, 2260, 2253, 2252, 2259
1222, 2246, 2239, 2238, 2245, 2267, 2260, 2259, 2266
1223, 2240, 2233, 2232, 2239, 2261, 2254, 2253, 2260
1224, 2247, 2240, 2239, 2246, 2268, 2261, 2260, 2267
1225, 2256, 2249, 2248, 2255, 2277, 2270, 2269, 2276
1226, 2263, 2256, 2255, 2262, 2284, 2277, 2276, 2283
1227, 2257, 2250, 2249, 2256, 2278, 2271, 2270, 2277
1228, 2264, 2257, 2256, 2263, 2285, 2278, 2277, 2284
1229, 2258, 2251, 2250, 2257, 2279, 2272, 2271, 2278
1230, 2265, 2258, 2257, 2264, 2286, 2279, 2278, 2285
1231, 2259, 2252, 2251, 2258, 2280, 2273, 2272, 2279
1232, 2266, 2259, 2258, 2265, 2287, 2280, 2279, 2286
1233, 2260, 2253, 2252, 2259, 2281, 2274, 2273, 2280
1234, 2267, 2260, 2259, 2266, 2288, 2281, 2280, 2287
1235, 2261, 2254, 2253, 2260, 2282, 2275, 2274, 2281
1236, 2268, 2261, 2260, 2267, 2289, 2282, 2281, 2288
1237, 2277, 2270, 2269, 2276, 2298, 2291, 2290, 2297
1238, 2284, 2277, 2276, 2283, 2305, 2298, 2297, 2304
1239, 2278, 2271, 2270, 2277, 2299, 2292, 2291, 2298
1240, 2285, 2278, 2277, 2284, 2306, 2299, 2298, 2305
1241, 2279, 2272, 2271, 2278, 2300, 2293, 2292, 2299
1242, 2286, 2279, 2278, 2285, 2307, 2300, 2299, 2306
1243, 2280, 2273, 2272, 2279, 2301, 2294, 2293, 2300
1244, 2287, 2280, 2279, 2286, 2308, 2301, 2300, 2307
1245, 2281, 2274, 2273, 2280, 2302, 2295, 2294, 2301
1246, 2288, 2281, 2280, 2287, 2309, 2302, 2301, 2308
1247, 2282, 2275, 2274, 2281, 2303, 2296, 2295, 2302
1248, 2289, 2282, 2281, 2288, 2310, 2303, 2302, 2309
1249, 2298, 2291, 2290, 2297, 2319, 2312, 2311, 2318
1250, 2305, 2298, 2297, 2304, 2326, 2319, 2318, 2325
1251, 2299, 2292, 2291, 2298, 2320, 2313, 2312, 2319
1252, 2306, 2299, 2298, 2305, 2327, 2320, 2319, 2326
1253, 2300, 2293, 2292, 2299, 2321, 2314, 2313, 2320
1254, 2307, 2300, 2299, 2306, 2328, 2321, 2320, 2327
1255, 2301, 2294, 2293, 2300, 2322, 2315, 2314, 2321
1256, 2308, 2301, 2300, 2307, 2329, 2322, 2321, 2328
1257, 2302, 2295, 2294, 2301, 2323, 2316, 2315, 2322
1258, 2309, 2302, 2301, 2308, 2330, 2323, 2322, 2329
1259, 2303, 2296, 2295, 2302, 2324, 2317, 2316, 2323
1260, 2310, 2303, 2302, 2309, 2331, 2324, 2323, 2330
1261, 2319, 2312, 2311, 2318, 2340, 2333, 2332, 2339
1262, 2326, 2319, 2318, 2325, 2347, 2340, 2339, 2346
1263, 2320, 2313, 2312, 2319, 2341, 2334, 2333, 2340
1264, 2327, 2320, 2319, 2326, 2348, 2341, 2340, 2347
1265, 2321, 2314, 2313, 2320, 2342, 2335, 2334, 2341
1266, 2328, 2321, 2320, 2327, 2349, 2342, 2341, 2348
1267, 2322, 2315, 2314, 2321, 2343, 2336, 2335, 2342
1268, 2329, 2322, 2321, 2328, 2350, 2343, 2342, 2349
1269, 2323, 2316, 2315, 2322, 2344, 2337, 2336, 2343
1270, 2330, 2323, 2322, 2329, 2351, 2344, 2343, 2350
1271, 2324, 2317, 2316, 2323, 2345, 2338, 2337, 2344
1272, 2331, 2324, 2323, 2330, 2352, 2345, 2344, 2351
1273, 2340, 2333, 2332, 2339, 2361, 2354, 2353, 2360
1274, 2347, 2340, 2339, 2346, 2368, 2361, 2360, 2367
1275, 2341, 2334, 2333, 2340, 2362, 2355, 2354, 2361
1276, 2348, 2341, 2340, 2347, 2369, 2362, 2361, 2368
1277, 2342, 2335, 2334, 2341, 2363, 2356, 2355, 2362
1278, 2349, 2342, 2341, 2348, 2370, 2363, 2362, 2369
1279, 2343, 2336, 2335, 2342, 2364, 2357, 2356, 2363
1280, 2350, 2343, 2342, 2349, 2371, 2364, 2363, 2370
1281, 2344, 2337, 2336, 2343, 2365, 2358, 2357, 2364
1282, 2351, 2344, 2343, 2350, 2372, 2365, 2364, 2371
1283, 2345, 2338, 2337, 2344, 2366, 2359, 2358, 2365
1284, 2352, 2345, 2344, 2351, 2373, 2366, 2365, 2372
1285, 2361, 2354, 2353, 2360, 2382, 2375, 2374, 2381
1286, 2368, 2361, 2360, 2367, 2389, 2382, 2381, 2388
1287, 2362, 2355, 2354, 2361, 2383, 2376, 2375, 2382
1288, 2369, 2362, 2361, 2368, 2390, 2383, 2382, 2389
1289, 2363, 2356, 2355, 2362, 2384, 2377, 2376, 2383
1290, 2370, 2363, 2362, 2369, 2391, 2384, 2383, 2390
1291, 2364, 2357, 2356, 2363, 2385, 2378, 2377, 2384
1292, 2371, 2364, 2363, 2370, 2392, 2385, 2384, 2391
1293, 2365, 2358, 2357, 2364, 2386, 2379, 2378, 2385
1294, 2372, 2365, 2364, 2371, 2393, 2386, 2385, 2392
1295, 2366, 2359, 2358, 2365, 2387, 2380, 2379, 2386
1296, 2373, 2366, 2365, 2372, 2394, 2387, 2386, 2393
1297, 2403, 2396, 2395, 2402, 2424, 2417, 2416, 2423
1298, 2410, 2403, 2402, 2409, 2431, 2424, 2423, 2430
1299, 2404, 2397, 2396, 2403, 2425, 2418, 2417, 2424
1300, 2411, 2404, 2403, 2410, 2432, 2425, 2424, 2431
1301, 2405, 2398, 2397, 2404, 2426, 2419, 2418, 2425
1302, 2412, 2405, 2404, 2411, 2433, 2426, 2425, 2432
1303, 2406, 2399, 2398, 2405, 2427, 2420, 2419, 2426
1304, 2413, 2406, 2405, 2412, 2434, 2427, 2426, 2433
1305, 2407, 2400, 2399, 2406, 2428, 2421, 2420, 2427
1306, 2414, 2407, 2406, 2413, 2435, 2428, 2427, 2434
1307, 2408, 2401, 2400, 2407, 2429, 2422, 2421, 2428
1308, 2415, 2408, 2407, 2414, 2436, 2429, 2428, 2435
1309, 2424, 2417, 2416, 2423, 2445, 2438, 2437, 2444
1310, 2431, 2424, 2423, 2430, 2452, 2445, 2444, 2451
1311, 2425, 2418, 2417, 2424, 2446, 2439, 2438, 2445
1312, 2432, 2425, 2424, 2431, 2453, 2446, 2445, 2452
1313, 2426, 2419, 2418, 2425, 2447, 2440, 2439, 2446
1314, 2433, 2426, 2425, 2432, 2454, 2447, 2446, 2453
1315, 2427, 2420, 2419, 2426, 2448, 2441, 2440, 2447
1316, 2434, 2427, 2426, 2433, 2455, 2448, 2447, 2454
1317, 2428, 2421, 2420, 2427, 2449, 2442, 2441, 2448
1318, 2435, 2428, 2427, 2434, 2456, 2449, 2448, 2455
1319, 2429, 2422, 2421, 2428, 2450, 2443, 2442, 2449
1320, 2436, 2429, 2428, 2435, 2457, 2450, 2449, 2456
1321, 2445, 2438, 2437, 2444, 2466, 2459, 2458, 2465
1322, 2452, 2445, 2444, 2451, 2473, 2466, 2465, 2472
1323, 2446, 2439, 2438, 2445, 2467, 2460, 2459, 2466
1324, 2453, 2446, 2445, 2452, 2474, 2467, 2466, 2473
1325, 2447, 2440, 2439, 2446, 2468, 2461, 2460, 2467
1326, 2454, 2447, 2446, 2453, 2475, 2468, 2467, 2474
1327, 2448, 2441, 2440, 2447, 2469, 2462, 2461, 2468
1328, 2455, 2448, 2447, 2454, 2476, 2469, 2468, 2475
1329, 2449, 2442, 2441, 2448, 2470, 2463, 2462, 2469
1330, 2456, 2449, 2448, 2455, 2477, 2470, 2469, 2476
1331, 2450, 2443, 2442, 2449, 2471, 2464, 2463, 2470
1332, 2457, 2450, 2449, 2456, 2478, 2471, 2470, 2477
1333, 2466, 2459, 2458, 2465, 2487, 2480, 2479, 2486
1334, 2473, 2466, 2465, 2472, 2494, 2487, 2486, 2493
1335, 2467, 2460, 2459, 2466, 2488, 2481, 2480, 2487
1336, 2474, 2467, 2466, 2473, 2495, 2488, 2487, 2494
1337, 2468, 2461, 2460, 2467, 2489, 2482, 2481, 2488
1338, 2475, 2468, 2467, 2474, 2496, 2489, 2488, 2495
1339, 2469, 2462, 2461, 2468, 2490, 2483, 2482, 2489
1340, 2476, 2469, 2468, 2475, 2497, 2490, 2489, 2496
1341, 2470, 2463, 2462, 2469, 2491, 2484, 2483, 2490
1342, 2477, 2470, 2469, 2476, 2498, 2491, 2490, 2497
1343, 2471, 2464, 2463, 2470, 2492, 2485, 2484, 2491
1344, 2478, 2471, 2470, 2477, 2499, 2492, 2491, 2498
1345, 2487, 2480, 2479, 2486, 2508, 2501, 2500, 2507
1346, 2494, 2487, 2486, 2493, 2515, 2508, 2507, 2514
1347, 2488, 2481, 2480, 2487, 2509, 2502, 2501, 2508
1348, 2495, 2488, 2487, 2494, 2516, 2509, 2508, 2515
1349, 2489, 2482, 2481, 2488, 2510, 2503, 2502, 2509
1350, 2496, 2489, 2488, 2495, 2517, 2510, 2509, 2516
1351, 2490, 2483, 2482, 2489, 2511, 2504, 2503, 2510
1352, 2497, 2490, 2489, 2496, 2518, 2511, 2510, 2517
1353, 2491, 2484, 2483, 2490, 2512, 2505, 2504, 2511
1354, 2498, 2491, 2490, 2497, 2519, 2512, 2511, 2518
1355, 2492, 2485, 2484, 2491, 2513, 2506, 2505, 2512
1356, 2499, 2492, 2491, 2498, 2520, 2513, 2512, 2519
1357, 2508, 2501, 2500, 2507, 2529, 2522, 2521, 2528
1358, 2515, 2508, 2507, 2514, 2536, 2529, 2528, 2535
1359, 2509, 2502, 2501, 2508, 2530, 2523, 2522, 2529
1360, 2516, 2509, 2508, 2515, 2537, 2530, 2529, 2536
1361, 2510, 2503, 2502, 2509, 2531, 2524, 2523, 2530
1362, 2517, 2510, 2509, 2516, 2538, 2531, 2530, 2537
1363, 2511, 2504, 2503, 2510, 2532, 2525, 2524, 2531
1364, 2518, 2511, 2510, 2517, 2539, 2532, 2531, 2538
1365, 2512, 2505, 2504, 2511, 2533, 2526, 2525, 2532
1366, 2519, 2512, 2511, 2518, 2540, 2533, 2532, 2539
1367, 2513, 2506, 2505, 2512, 2534, 2527, 2526, 2533
1368, 2520, 2513, 2512, 2519, 2541, 2534, 2533, 2540
1369, 2529, 2522, 2521, 2528, 2550, 2543, 2542, 2549
1370, 2536, 2529, 2528, 2535, 2557, 2550, 2549, 2556
1371, 2530, 2523, 2522, 2529, 2551, 2544, 2543, 2550
1372, 2537, 2530, 2529, 2536, 2558, 2551, 2550, 2557
1373, 2531, 2524, 2523, 2530, 2552, 2545, 2544, 2551
1374, 2538, 2531, 2530, 2537, 2559, 2552, 2551, 2558
1375, 2532, 2525, 2524, 2531, 2553, 2546, 2545, 2552
1376, 2539, 2532, 2531, 2538, 2560, 2553, 2552, 2559
1377, 2533, 2526, 2525, 2532, 2554, 2547, 2546, 2553
1378, 2540, 2533, 2532, 2539, 2561, 2554, 2553, 2560
1379, 2534, 2527, 2526, 2533, 2555, 2548, 2547, 2554
1380, 2541, 2534, 2533, 2540, 2562, 2555, 2554, 2561
1381, 2550, 2543, 2542, 2549, 2571, 2564, 2563, 2570
1382, 2557, 2550, 2549, 2556, 2578, 2571, 2570, 2577
1383, 2551, 2544, 2543, 2550, 2572, 2565, 2564, 2571
1384, 2558, 2551, 2550, 2557, 2579, 2572, 2571, 2578
1385, 2552, 2545, 2544, 2551, 2573, 2566, 2565, 2572
1386, 2559, 2552, 2551, 2558, 2580, 2573, 2572, 2579
1387, 2553, 2546, 2545, 2552, 2574, 2567, 2566, 2573
1388, 2560, 2553, 2552, 2559, 2581, 2574, 2573, 2580
1389, 2554, 2547, 2546, 2553, 2575, 2568, 2567, 2574
1390, 2561, 2554, 2553, 2560, 2582, 2575, 2574, 2581
1391, 2555, 2548, 2547, 2554, 2576, 2569, 2568, 2575
1392, 2562, 2555, 2554, 2561, 2583, 2576, 2575, 2582
1393, 2571, 2564, 2563, 2570, 2592, 2585, 2584, 2591
1394, 2578, 2571, 2570, 2577, 2599, 2592, 2591, 2598
1395, 2572, 2565, 2564, 2571, 2593, 2586, 2585, 2592
1396, 2579, 2572, 2571, 2578, 2600, 2593, 2592, 2599
1397, 2573, 2566, 2565, 2572, 2594, 2587, 2586, 2593
1398, 2580, 2573, 2572, 2579, 2601, 2594, 2593, 2600
1399, 2574, 2567, 2566, 2573, 2595, 2588, 2587, 2594
1400, 2581, 2574, 2573, 2580, 2602, 2595, 2594, 2601
1401, 2575, 2568, 2567, 2574, 2596, 2589, 2588, 2595
1402, 2582, 2575, 2574, 2581, 2603, 2596, 2595, 2602
1403, 2576, 2569, 2568, 2575, 2597, 2590, 2589, 2596
1404, 2583, 2576, 2575, 2582, 2604, 2597, 2596, 2603
1405, 2592, 2585, 2584, 2591, 2613, 2606, 2605, 2612
1406, 2599, 2592, 2591, 2598, 2620, 2613, 2612, 2619
1407, 2593, 2586, 2585, 2592, 2614, 2607, 2606, 2613
1408, 2600, 2593, 2592, 2599, 2621, 2614, 2613, 2620
1409, 2594, 2587, 2586, 2593, 2615, 2608, 2607, 2614
1410, 2601, 2594, 2593, 2600, 2622, 2615, 2614, 2621
1411, 2595, 2588, 2587, 2594, 2616, 2609, 2608, 2615
1412, 2602, 2595, 2594, 2601, 2623, 2616, 2615, 2622
1413, 2596, 2589, 2588, 2595, 2617, 2610, 2609, 2616
1414, 2603, 2596, 2595, 2602, 2624, 2617, 2616, 2623
1415, 2597, 2590, 2589, 2596, 2618, 2611, 2610, 2617
1416, 2604, 2597, 2596, 2603, 2625, 2618, 2617, 2624
1417, 2613, 2606, 2605, 2612, 2634, 2627, 2626, 2633
1418, 2620, 2613, 2612, 2619, 2641, 2634, 2633, 2640
1419, 2614, 2607, 2606, 2613, 2635, 2628, 2627, 2634
1420, 2621, 2614, 2613, 2620, 2642, 2635, 2634, 2641
1421, 2615, 2608, 2607, 2614, 2636, 2629, 2628, 2635
1422, 2622, 2615, 2614, 2621, 2643, 2636, 2635, 2642
1423, 2616, 2609, 2608, 2615, 2637, 2630, 2629, 2636
1424, 2623, 2616, 2615, 2622, 2644, 2637, 2636, 2643
1425, 2617, 2610, 2609, 2616, 2638, 2631, 2630, 2637
1426, 2624, 2617, 2616, 2623, 2645, 2638, 2637, 2644
1427, 2618, 2611, 2610, 2617, 2639, 2632, 2631, 2638
1428, 2625, 2618, 2617, 2624, 2646, 2639, 2638, 2645
1429, 2634, 2627, 2626, 2633, 2655, 2648, 2647, 2654
1430, 2641, 2634, 2633, 2640, 2662, 2655, 2654, 2661
1431, 2635, 2628, 2627, 2634, 2656, 2649, 2648, 2655
1432, 2642, 2635, 2634, 2641, 2663, 2656, 2655, 2662
1433, 2636, 2629, 2628, 2635, 2657, 2650, 2649, 2656
1434, 2643, 2636, 2635, 2642, 2664, 2657, 2656, 2663
1435, 2637, 2630, 2629, 2636, 2658, 2651, 2650, 2657
1436, 2644, 2637, 2636, 2643, 2665, 2658, 2657, 2664
1437, 2638, 2631, 2630, 2637, 2659, 2652, 2651, 2658
1438, 2645, 2638, 2637, 2644, 2666, 2659, 2658, 2665
1439, 2639, 2632, 2631, 2638, 2660, 2653, 2652, 2659
1440, 2646, 2639, 2638, 2645, 2667, 2660, 2659, 2666
1441, 2655, 2648, 2647, 2654, 2676, 2669, 2668, 2675
1442, 2662, 2655, 2654, 2661, 2683, 2676, 2675, 2682
1443, 2656, 2649, 2648, 2655, 2677, 2670, 2669, 2676
1444, 2663, 2656, 2655, 2662, 2684, 2677, 2676, 2683
1445, 2657, 2650, 2649, 2656, 2678, 2671, 2670, 2677
1446, 2664, 2657, 2656, 2663, 2685, 2678, 2677, 2684
1447, 2658, 2651, 2650, 2657, 2679, 2672, 2671, 2678
1448, 2665, 2658, 2657, 2664, 2686, 2679, 2678, 2685
1449, 2659, 2652, 2651, 2658, 2680, 2673, 2672, 2679
1450, 2666, 2659, 2658, 2665, 2687, 2680, 2679, 2686
1451, 2660, 2653, 2652, 2659, 2681, 2674, 2673, 2680
1452, 2667, 2660, 2659, 2666, 2688, 2681, 2680, 2687
1453, 2676, 2669, 2668, 2675, 2697, 2690, 2689, 2696
1454, 2683, 2676, 2675, 2682, 2704, 2697, 2696, 2703
1455, 2677, 2670, 2669, 2676, 2698, 2691, 2690, 2697
1456, 2684, 2677, 2676, 2683, 2705, 2698, 2697, 2704
1457, 2678, 2671, 2670, 2677, 2699, 2692, 2691, 2698
1458, 2685, 2678, 2677, 2684, 2706, 2699, 2698, 2705
1459, 2679, 2672, 2671, 2678, 2700, 2693, 2692, 2699
1460, 2686, 2679, 2678, 2685, 2707, 2700, 2699, 2706
1461, 2680, 2673, 2672, 2679, 2701, 2694, 2693, 2700
1462, 2687, 2680, 2679, 2686, 2708, 2701, 2700, 2707
1463, 2681, 2674, 2673, 2680, 2702, 2695, 2694, 2701
1464, 2688, 2681, 2680, 2687, 2709, 2702, 2701, 2708
1465, 2697, 2690, 2689, 2696, 2718, 2711, 2710, 2717
1466, 2704, 2697, 2696, 2703, 2725, 2718, 2717, 2724
1467, 2698, 2691, 2690, 2697, 2719, 2712, 2711, 2718
1468, 2705, 2698, 2697, 2704, 2726, 2719, 2718, 2725
1469, 2699, 2692, 2691, 2698, 2720, 2713, 2712, 2719
1470, 2706, 2699, 2698, 2705, 2727, 2720, 2719, 2726
1471, 2700, 2693, 2692, 2699, 2721, 2714, 2713, 2720
1472, 2707, 2700, 2699, 2706, 2728, 2721, 2720, 2727
1473, 2701, 2694, 2693, 2700, 2722, 2715, 2714, 2721
1474, 2708, 2701, 2700, 2707, 2729, 2722, 2721, 2728
1475, 2702, 2695, 2694, 2701, 2723, 2716, 2715, 2722
1476, 2709, 2702, 2701, 2708, 2730, 2723, 2722, 2729
1477, 2718, 2711, 2710, 2717, 2739, 2732, 2731, 2738
1478, 2725, 2718, 2717, 2724, 2746, 2739, 2738, 2745
1479, 2719, 2712, 2711, 2718, 2740, 2733, 2732, 2739
1480, 2726, 2719, 2718, 2725, 2747, 2740, 2739, 2746
1481, 2720, 2713, 2712, 2719, 2741, 2734, 2733, 2740
1482, 2727, 2720, 2719, 2726, 2748, 2741, 2740, 2747
1483, 2721, 2714, 2713, 2720, 2742, 2735, 2734, 2741
1484, 2728, 2721, 2720, 2727, 2749, 2742, 2741, 2748
1485, 2722, 2715, 2714, 2721, 2743, 2736, 2735, 2742
1486, 2729, 2722, 2721, 2728, 2750, 2743, 2742, 2749
1487, 2723, 2716, 2715, 2722, 2744, 2737, 2736, 2743
1488, 2730, 2723, 2722, 2729, 2751, 2744, 2743, 2750
1489, 2739, 2732, 2731, 2738, 2760, 2753, 2752, 2759
1490, 2746, 2739, 2738, 2745, 2767, 2760, 2759, 2766
1491, 2740, 2733, 2732, 2739, 2761, 2754, 2753, 2760
1492, 2747, 2740, 2739, 2746, 2768, 2761, 2760, 2767
1493, 2741, 2734, 2733, 2740, 2762, 2755, 2754, 2761
1494, 2748, 2741, 2740, 2747, 2769, 2762, 2761, 2768
1495, 2742, 2735, 2734, 2741, 2763, 2756, 2755, 2762
1496, 2749, 2742, 2741, 2748, 2770, 2763, 2762, 2769
1497, 2743, 2736, 2735, 2742, 2764, 2757, 2756, 2763
1498, 2750, 2743, 2742, 2749, 2771, 2764, 2763, 2770
1499, 2744, 2737, 2736, 2743, 2765, 2758, 2757, 2764
1500, 2751, 2744, 2743, 2750, 2772, 2765, 2764, 2771
1501, 2760, 2753, 2752, 2759, 2781, 2774, 2773, 2780
1502, 2767, 2760, 2759, 2766, 2788, 2781, 2780, 2787
1503, 2761, 2754, 2753, 2760, 2782, 2775, 2774, 2781
1504, 2768, 2761, 2760, 2767, 2789, 2782, 2781, 2788
1505, 2762, 2755, 2754, 2761, 2783, 2776, 2775, 2782
1506, 2769, 2762, 2761, 2768, 2790, 2783, 2782, 2789
1507, 2763, 2756, 2755, 2762, 2784, 2777, 2776, 2783
1508, 2770, 2763, 2762, 2769, 2791, 2784, 2783, 2790
1509, 2764, 2757, 2756, 2763, 2785, 2778, 2777, 2784
1510, 2771, 2764, 2763, 2770, 2792, 2785, 2784, 2791
1511, 2765, 2758, 2757, 2764, 2786, 2779, 2778, 2785
1512, 2772, 2765, 2764, 2771, 2793, 2786, 2785, 2792
1513, 2802, 2795, 2794, 2801, 2823, 2816, 2815, 2822
1514, 2809, 2802, 2801, 2808, 2830, 2823, 2822, 2829
1515, 2803, 2796, 2795, 2802, 2824, 2817, 2816, 2823
1516, 2810, 2803, 2802, 2809, 2831, 2824, 2823, 2830
1517, 2804, 2797, 2796, 2803, 2825, 2818, 2817, 2824
1518, 2811, 2804, 2803, 2810, 2832, 2825, 2824, 2831
1519, 2805, 2798, 2797, 2804, 2826, 2819, 2818, 2825
1520, 2812, 2805, 2804, 2811, 2833, 2826, 2825, 2832
1521, 2806, 2799, 2798, 2805, 2827, 2820, 2819, 2826
1522, 2813, 2806, 2805, 2812, 2834, 2827, 2826, 2833
1523, 2807, 2800, 2799, 2806, 2828, 2821, 2820, 2827
1524, 2814, 2807, 2806, 2813, 2835, 2828, 2827, 2834
1525, 2823, 2816, 2815, 2822, 2844, 2837, 2836, 2843
1526, 2830, 2823, 2822, 2829, 2851, 2844, 2843, 2850
1527, 2824, 2817, 2816, 2823, 2845, 2838, 2837, 2844
1528, 2831, 2824, 2823, 2830, 2852, 2845, 2844, 2851
1529, 2825, 2818, 2817, 2824, 2846, 2839, 2838, 2845
1530, 2832, 2825, 2824, 2831, 2853, 2846, 2845, 2852
1531, 2826, 2819, 2818, 2825, 2847, 2840, 2839, 2846
1532, 2833, 2826, 2825, 2832, 2854, 2847, 2846, 2853
1533, 2827, 2820, 2819, 2826, 2848, 2841, 2840, 2847
1534, 2834, 2827, 2826, 2833, 2855, 2848, 2847, 2854
1535, 2828, 2821, 2820, 2827, 2849, 2842, 2841, 2848
1536, 2835, 2828, 2827, 2834, 2856, 2849, 2848, 2855
1537, 2844, 2837, 2836, 2843, 2865, 2858, 2857, 2864
1538, 2851, 2844, 2843, 2850, 2872, 2865, 2864, 2871
1539, 2845, 2838, 2837, 2844, 2866, 2859, 2858, 2865
1540, 2852, 2845, 2844, 2851, 2873, 2866, 2865, 2872
1541, 2846, 2839, 2838, 2845, 2867, 2860, 2859, 2866
1542, 2853, 2846, 2845, 2852, 2874, 2867, 2866, 2873
1543, 2847, 2840, 2839, 2846, 2868, 2861, 2860, 2867
1544, 2854, 2847, 2846, 2853, 2875, 2868, 2867, 2874
1545, 2848, 2841, 2840, 2847, 2869, 2862, 2861, 2868
1546, 2855, 2848, 2847, 2854, 2876, 2869, 2868, 2875
1547, 2849, 2842, 2841, 2848, 2870, 2863, 2862, 2869
1548, 2856, 2849, 2848, 2855, 2877, 2870, 2869, 2876
1549, 2865, 2858, 2857, 2864, 2886, 2879, 2878, 2885
1550, 2872, 2865, 2864, 2871, 2893, 2886, 2885, 2892
1551, 2866, 2859, 2858, 2865, 2887, 2880, 2879, 2886
1552, 2873, 2866, 2865, 2872, 2894, 2887, 2886, 2893
1553, 2867, 2860, 2859, 2866, 2888, 2881, 2880, 2887
1554, 2874, 2867, 2866, 2873, 2895, 2888, 2887, 2894
1555, 2868, 2861, 2860, 2867, 2889, 2882, 2881, 2888
1556, 2875, 2868, 2867, 2874, 2896, 2889, 2888, 2895
1557, 2869, 2862, 2861, 2868, 2890, 2883, 2882, 2889
1558, 2876, 2869, 2868, 2875, 2897, 2890, 2889, 2896
1559, 2870, 2863, 2862, 2869, 2891, 2884, 2883, 2890
1560, 2877, 2870, 2869, 2876, 2898, 2891, 2890, 2897
1561, 2886, 2879, 2878, 2885, 2907, 2900, 2899, 2906
1562, 2893, 2886, 2885, 2892, 2914, 2907, 2906, 2913
1563, 2887, 2880, 2879, 2886, 2908, 2901, 2900, 2907
1564, 2894, 2887, 2886, 2893, 2915, 2908, 2907, 2914
1565, 2888, 2881, 2880, 2887, 2909, 2902, 2901, 2908
1566, 2895, 2888, 2887, 2894, 2916, 2909, 2908, 2915
1567, 2889, 2882, 2881, 2888, 2910, 2903, 2902, 2909
1568, 2896, 2889, 2888, 2895, 2917, 2910, 2909, 2916
1569, 2890, 2883, 2882, 2889, 2911, 2904, 2903, 2910
1570, 2897, 2890, 2889, 2896, 2918, 2911, 2910, 2917
1571, 2891, 2884, 2883, 2890, 2912, 2905, 2904, 2911
1572, 2898, 2891, 2890, 2897, 2919, 2912, 2911, 2918
1573, 2907, 2900, 2899, 2906, 2928, 2921, 2920, 2927
1574, 2914, 2907, 2906, 2913, 2935, 2928, 2927, 2934
1575, 2908, 2901, 2900, 2907, 2929, 2922, 2921, 2928
1576, 2915, 2908, 2907, 2914, 2936, 2929, 2928, 2935
1577, 2909, 2902, 2901, 2908, 2930, 2923, 2922, 2929
1578, 2916, 2909, 2908, 2915, 2937, 2930, 2929, 2936
1579, 2910, 2903, 2902, 2909, 2931, 2924, 2923, 2930
1580, 2917, 2910, 2909, 2916, 2938, 2931, 2930, 2937
1581, 2911, 2904, 2903, 2910, 2932, 2925, 2924, 2931
1582, 2918, 2911, 2910, 2917, 2939, 2932, 2931, 2938
1583, 2912, 2905, 2904, 2911, 2933, 2926, 2925, 2932
1584, 2919, 2912, 2911, 2918, 2940, 2933, 2932, 2939
1585, 2928, 2921, 2920, 2927, 2949, 2942, 2941, 2948
1586, 2935, 2928, 2927, 2934, 2956, 2949, 2948, 2955
1587, 2929, 2922, 2921, 2928, 2950, 2943, 2942, 2949
1588, 2936, 2929, 2928, 2935, 2957, 2950, 2949, 2956
1589, 2930, 2923, 2922, 2929, 2951, 2944, 2943, 2950
1590, 2937, 2930, 2929, 2936, 2958, 2951, 2950, 2957
1591, 2931, 2924, 2923, 2930, 2952, 2945, 2944, 2951
1592, 2938, 2931, 2930, 2937, 2959, 2952, 2951, 2958
1593, 2932, 2925, 2924, 2931, 2953, 2946, 2945, 2952
1594, 2939, 2932, 2931, 2938, 2960, 2953, 2952, 2959
1595, 2933, 2926, 2925, 2932, 2954, 2947, 2946, 2953
1596, 2940, 2933, 2932, 2939, 2961, 2954, 2953, 2960
1597, 2949, 2942, 2941, 2948, 2970, 2963, 2962, 2969
1598, 2956, 2949, 2948, 2955, 2977, 2970, 2969, 2976
1599, 2950, 2943, 2942, 2949, 2971, 2964, 2963, 2970
1600, 2957, 2950, 2949, 2956, 2978, 2971, 2970, 2977
1601, 2951, 2944, 2943, 2950, 2972, 2965, 2964, 2971
1602, 2958, 2951, 2950, 2957, 2979, 2972, 2971, 2978
1603, 2952, 2945, 2944, 2951, 2973, 2966, 2965, 2972
1604, 2959, 2952, 2951, 2958, 2980, 2973, 2972, 2979
1605, 2953, 2946, 2945, 2952, 2974, 2967, 2966, 2973
1606, 2960, 2953, 2952, 2959, 2981, 2974, 2973, 2980
1607, 2954, 2947, 2946, 2953, 2975, 2968, 2967, 2974
1608, 2961, 2954, 2953, 2960, 2982, 2975, 2974, 2981
1609, 2970, 2963, 2962, 2969, 2991, 2984, 2983, 2990
1610, 2977, 2970, 2969, 2976, 2998, 2991, 2990, 2997
1611, 2971, 2964, 2963, 2970, 2992, 2985, 2984, 2991
1612, 2978, 2971, 2970, 2977, 2999, 2992, 2991, 2998
1613, 2972, 2965, 2964, 2971, 2993, 2986, 2985, 2992
1614, 2979, 2972, 2971, 2978, 3000, 2993, 2992, 2999
1615, 2973, 2966, 2965, 2972, 2994, 2987, 2986, 2993
1616, 2980, 2973, 2972, 2979, 3001, 2994, 2993, 3000
1617, 2974, 2967, 2966, 2973, 2995, 2988, 2987, 2994
1618, 2981, 2974, 2973, 2980, 3002, 2995, 2994, 3001
1619, 2975, 2968, 2967, 2974, 2996, 2989, 2988, 2995
1620, 2982, 2975, 2974, 2981, 3003, 2996, 2995, 3002
1621, 2991, 2984, 2983, 2990, 3012, 3005, 3004, 3011
1622, 2998, 2991, 2990, 2997, 3019, 3012, 3011, 3018
1623, 2992, 2985, 2984, 2991, 3013, 3006, 3005, 3012
1624, 2999, 2992, 2991, 2998, 3020, 3013, 3012, 3019
1625, 2993, 2986, 2985, 2992, 3014, 3007, 3006, 3013
1626, 3000, 2993, 2992, 2999, 3021, 3014, 3013, 3020
1627, 2994, 2987, 2986, 2993, 3015, 3008, 3007, 3014
1628, 3001, 2994, 2993, 3000, 3022, 3015, 3014, 3021
1629, 2995, 2988, 2987, 2994, 3016, 3009, 3008, 3015
1630, 3002, 2995, 2994, 3001, 3023, 3016, 3015, 3022
1631, 2996, 2989, 2988, 2995, 3017, 3010, 3009, 3016
1632, 3003, 2996, 2995, 3002, 3024, 3017, 3016, 3023
1633, 3012, 3005, 3004, 3011, 3033, 3026, 3025, 3032
1634, 3019, 3012, 3011, 3018, 3040, 3033, 3032, 3039
1635, 3013, 3006, 3005, 3012, 3034, 3027, 3026, 3033
1636, 3020, 3013, 3012, 3019, 3041, 3034, 3033, 3040
1637, 3014, 3007, 3006, 3013, 3035, 3028, 3027, 3034
1638, 3021, 3014, 3013, 3020, 3042, 3035, 3034, 3041
1639, 3015, 3008, 3007, 3014, 3036, 3029, 3028, 3035
1640, 3022, 3015, 3014, 3021, 3043, 3036, 3035, 3042
1641, 3016, 3009, 3008, 3015, 3037, 3030, 3029, 3036
1642, 3023, 3016, 3015, 3022, 3044, 3037, 3036, 3043
1643, 3017, 3010, 3009, 3016, 3038, 3031, 3030, 3037
1644, 3024, 3017, 3016, 3023, 3045, 3038, 3037, 3044
1645, 3033, 3026, 3025, 3032, 3054, 3047, 3046, 3053
1646, 3040, 3033, 3032, 3039, 3061, 3054, 3053, 3060
1647, 3034, 3027, 3026, 3033, 3055, 3048, 3047, 3054
1648, 3041, 3034, 3033, 3040, 3062, 3055, 3054, 3061
1649, 3035, 3028, 3027, 3034, 3056, 3049, 3048, 3055
1650, 3042, 3035, 3034, 3041, 3063, 3056, 3055, 3062
1651, 3036, 3029, 3028, 3035, 3057, 3050, 3049, 3056
1652, 3043, 3036, 3035, 3042, 3064, 3057, 3056, 3063
1653, 3037, 3030, 3029, 3036, 3058, 3051, 3050, 3057
1654, 3044, 3037, 3036, 3043, 3065, 3058, 3057, 3064
1655, 3038, 3031, 3030, 3037, 3059, 3052, 3051, 3058
1656, 3045, 3038, 3037, 3044, 3066, 3059, 3058, 3065
1657, 3054, 3047, 3046, 3053, 3075, 3068, 3067, 3074
1658, 3061, 3054, 3053, 3060, 3082, 3075, 3074, 3081
1659, 3055, 3048, 3047, 3054, 3076, 3069, 3068, 3075
1660, 3062, 3055, 3054, 3061, 3083, 3076, 3075, 3082
1661, 3056, 3049, 3048, 3055, 3077, 3070, 3069, 3076
1662, 3063, 3056, 3055, 3062, 3084, 3077, 3076, 3083
1663, 3057, 3050, 3049, 3056, 3078, 3071, 3070, 3077
1664, 3064, 3057, 3056, 3063, 3085, 3078, 3077, 3084
1665, 3058, 3051, 3050, 3057, 3079, 3072, 3071, 3078
1666, 3065, 3058, 3057, 3064, 3086, 3079, 3078, 3085
1667, 3059, 3052, 3051, 3058, 3080, 3073, 3072, 3079
1668, 3066, 3059, 3058, 3065, 3087, 3080, 3079, 3086
1669, 3075, 3068, 3067, 3074, 3096, 3089, 3088, 3095
1670, 3082, 3075, 3074, 3081, 3103, 3096, 3095, 3102
1671, 3076, 3069, 3068, 3075, 3097, 3090, 3089, 3096
1672, 3083, 3076, 3075, 3082, 3104, 3097, 3096, 3103
1673, 3077, 3070, 3069, 3076, 3098, 3091, 3090, 3097
1674, 3084, 3077, 3076, 3083, 3105, 3098, 3097, 3104
1675, 3078, 3071, 3070, 3077, 3099, 3092, 3091, 3098
1676, 3085, 3078, 3077, 3084, 3106, 3099, 3098, 3105
1677, 3079, 3072, 3071, 3078, 3100, 3093, 3092, 3099
1678, 3086, 3079, 3078, 3085, 3107, 3100, 3099, 3106
1679, 3080, 3073, 3072, 3079, 3101, 3094, 3093, 3100
1680, 3087, 3080, 3079, 3086, 3108, 3101, 3100, 3107
1681, 3096, 3089, 3088, 3095, 3117, 3110, 3109, 3116
1682, 3103, 3096, 3095, 3102, 3124, 3117, 3116, 3123
1683, 3097, 3090, 3089, 3096, 3118, 3111, 3110, 3117
1684, 3104, 3097, 3096, 3103, 3125, 3118, 3117, 3124
1685, 3098, 3091, 3090, 3097, 3119, 3112, 3111, 3118
1686, 3105, 3098, 3097, 3104, 3126, 3119, 3118, 3125
1687, 3099, 3092, 3091, 3098, 3120, 3113, 3112, 3119
1688, 3106, 3099, 3098, 3105, 3127, 3120, 3119, 3126
1689, 3100, 3093, 3092, 3099, 3121, 3114, 3113, 3120
1690, 3107, 3100, 3099, 3106, 3128, 3121, 3120, 3127
1691, 3101, 3094, 3093, 3100, 3122, 3115, 3114, 3121
1692, 3108, 3101, 3100, 3107, 3129, 3122, 3121, 3128
1693, 3117, 3110, 3109, 3116, 3138, 3131, 3130, 3137
1694, 3124, 3117, 3116, 3123, 3145, 3138, 3137, 3144
1695, 3118, 3111, 3110, 3117, 3139, 3132, 3131, 3138
1696, 3125, 3118, 3117, 3124, 3146, 3139, 3138, 3145
1697, 3119, 3112, 3111, 3118, 3140, 3133, 3132, 3139
1698, 3126, 3119, 3118, 3125, 3147, 3140, 3139, 3146
1699, 3120, 3113, 3112, 3119, 3141, 3134, 3133, 3140
1700, 3127, 3120, 3119, 3126, 3148, 3141, 3140, 3147
1701, 3121, 3114, 3113, 3120, 3142, 3135, 3134, 3141
1702, 3128, 3121, 3120, 3127, 3149, 3142, 3141, 3148
1703, 3122, 3115, 3114, 3121, 3143, 3136, 3135, 3142
1704, 3129, 3122, 3121, 3128, 3150, 3143, 3142, 3149
1705, 3138, 3131, 3130, 3137, 3159, 3152, 3151, 3158
1706, 3145, 3138, 3137, 3144, 3166, 3159, 3158, 3165
1707, 3139, 3132, 3131, 3138, 3160, 3153, 3152, 3159
1708, 3146, 3139, 3138, 3145, 3167, 3160, 3159, 3166
1709, 3140, 3133, 3132, 3139, 3161, 3154, 3153, 3160
1710, 3147, 3140, 3139, 3146, 3168, 3161, 3160, 3167
1711, 3141, 3134, 3133, 3140, 3162, 3155, 3154, 3161
1712, 3148, 3141, 3140, 3147, 3169, 3162, 3161, 3168
1713, 3142, 3135, 3134, 3141, 3163, 3156, 3155, 3162
1714, 3149, 3142, 3141, 3148, 3170, 3163, 3162, 3169
1715, 3143, 3136, 3135, 3142, 3164, 3157, 3156, 3163
1716, 3150, 3143, 3142, 3149, 3171, 3164, 3163, 3170
1717, 3159, 3152, 3151, 3158, 3180, 3173, 3172, 3179
1718, 3166, 3159, 3158, 3165, 3187, 3180, 3179, 3186
1719, 3160, 3153, 3152, 3159, 3181, 3174, 3173, 3180
1720, 3167, 3160, 3159, 3166, 3188, 3181, 3180, 3187
1721, 3161, 3154, 3153, 3160, 3182, 3175, 3174, 3181
1722, 3168, 3161, 3160, 3167, 3189, 3182, 3181, 3188
1723, 3162, 3155, 3154, 3161, 3183, 3176, 3175, 3182
1724, 3169, 3162, 3161, 3168, 3190, 3183, 3182, 3189
1725, 3163, 3156, 3155, 3162, 3184, 3177, 3176, 3183
1726, 3170, 3163, 3162, 3169, 3191, 3184, 3183, 3190
1727, 3164, 3157, 3156, 3163, 3185, 3178, 3177, 3184
1728, 3171, 3164, 3163, 3170, 3192, 3185, 3184, 3191
1729, 3201, 3194, 3193, 3200, 3222, 3215, 3214, 3221
1730, 3208, 3201, 3200, 3207, 3229, 3222, 3221, 3228
1731, 3202, 3195, 3194, 3201, 3223, 3216, 3215, 3222
1732, 3209, 3202, 3201, 3208, 3230, 3223, 3222, 3229
1733, 3203, 3196, 3195, 3202, 3224, 3217, 3216, 3223
1734, 3210, 3203, 3202, 3209, 3231, 3224, 3223, 3230
1735, 3204, 3197, 3196, 3203, 3225, 3218, 3217, 3224
1736, 3211, 3204, 3203, 3210, 3232, 3225, 3224, 3231
1737, 3205, 3198, 3197, 3204, 3226, 3219, 3218, 3225
1738, 3212, 3205, 3204, 3211, 3233, 3226, 3225, 3232
1739, 3206, 3199, 3198, 3205, 3227, 3220, 3219, 3226
1740, 3213, 3206, 3205, 3212, 3234, 3227, 3226, 3233
1741, 3222, 3215, 3214, 3221, 3243, 3236, 3235, 3242
1742, 3229, 3222, 3221, 3228, 3250, 3243, 3242, 3249
1743, 3223, 3216, 3215, 3222, 3244, 3237, 3236, 3243
1744, 3230, 3223, 3222, 3229, 3251, 3244, 3243, 3250
1745, 3224, 3217, 3216, 3223, 3245, 3238, 3237, 3244
1746, 3231, 3224, 3223, 3230, 3252, 3245, 3244, 3251
1747, 3225, 3218, 3217, 3224, 3246, 3239, 3238, 3245
1748, 3232, 3225, 3224, 3231, 3253, 3246, 3245, 3252
1749, 3226, 3219, 3218, 3225, 3247, 3240, 3239, 3246
1750, 3233, 3226, 3225, 3232, 3254, 3247, 3246, 3253
1751, 3227, 3220, 3219, 3226, 3248, 3241, 3240, 3247
1752, 3234, 3227, 3226, 3233, 3255, 3248, 3247, 3254
1753, 3243, 3236, 3235, 3242, 3264, 3257, 3256, 3263
1754, 3250, 3243, 3242, 3249, 3271, 3264, 3263, 3270
1755, 3244, 3237, 3236, 3243, 3265, 3258, 3257, 3264
1756, 3251, 3244, 3243, 3250, 3272, 3265, 3264, 3271
1757, 3245, 3238, 3237, 3244, 3266, 3259, 3258, 3265
1758, 3252, 3245, 3244, 3251, 3273, 3266, 3265, 3272
1759, 3246, 3239, 3238, 3245, 3267, 3260, 3259, 3266
1760, 3253, 3246, 3245, 3252, 3274, 3267, 3266, 3273
1761, 3247, 3240, 3239, 3246, 3268, 3261, 3260, 3267
1762, 3254, 3247, 3246, 3253, 3275, 3268, 3267, 3274
1763, 3248, 3241, 3240, 3247, 3269, 3262, 3261, 3268
1764, 3255, 3248, 3247, 3254, 3276, 3269, 3268, 3275
1765, 3264, 3257, 3256, 3263, 3285, 3278, 3277, 3284
1766, 3271, 3264, 3263, 3270, 3292, 3285, 3284, 3291
1767, 3265, 3258, 3257, 3264, 3286, 3279, 3278, 3285
1768, 3272, 3265, 3264, 3271, 3293, 3286, 3285, 3292
1769, 3266, 3259, 3258, 3265, 3287, 3280, 3279, 3286
1770, 3273, 3266, 3265, 3272, 3294, 3287, 3286, 3293
1771, 3267, 3260, 3259, 3266, 3288, 3281, 3280, 3287
1772, 3274, 3267, 3266, 3273, 3295, 3288, 3287, 3294
1773, 3268, 3261, 3260, 3267, 3289, 3282, 3281, 3288
1774, 3275, 3268, 3267, 3274, 3296, 3289, 3288, 3295
1775, 3269, 3262, 3261, 3268, 3290, 3283, 3282, 3289
1776, 3276, 3269, 3268, 3275, 3297, 3290, 3289, 3296
1777, 3285, 3278, 3277, 3284, 3306, 3299, 3298, 3305
1778, 3292, 3285, 3284, 3291, 3313, 3306, 3305, 3312
1779, 3286, 3279, 3278, 3285, 3307, 3300, 3299, 3306
1780, 3293, 3286, 3285, 3292, 3314, 3307, 3306, 3313
1781, 3287, 3280, 3279, 3286, 3308, 3301, 3300, 3307
1782, 3294, 3287, 3286, 3293, 3315, 3308, 3307, 3314
1783, 3288, 3281, 3280, 3287, 3309, 3302, 3301, 3308
1784, 3295, 3288, 3287, 3294, 3316, 3309, 3308, 3315
1785, 3289, 3282, 3281, 3288, 3310, 3303, 3302, 3309
1786, 3296, 3289, 3288, 3295, 3317, 3310, 3309, 3316
1787, 3290, 3283, 3282, 3289, 3311, 3304, 3303, 3310
1788, 3297, 3290, 3289, 3296, 3318, 3311, 3310, 3317
1789, 3306, 3299, 3298, 3305, 3327, 3320, 3319, 3326
1790, 3313, 3306, 3305, 3312, 3334, 3327, 3326, 3333
1791, 3307, 3300, 3299, 3306, 3328, 3321, 3320, 3327
1792, 3314, 3307, 3306, 3313, 3335, 3328, 3327, 3334
1793, 3308, 3301, 3300, 3307, 3329, 3322, 3321, 3328
1794, 3315, 3308, 3307, 3314, 3336, 3329, 3328, 3335
1795, 3309, 3302, 3301, 3308, 3330, 3323, 3322, 3329
1796, 3316, 3309, 3308, 3315, 3337, 3330, 3329, 3336
1797, 3310, 3303, 3302, 3309, 3331, 3324, 3323, 3330
1798, 3317, 3310, 3309, 3316, 3338, 3331, 3330, 3337
1799, 3311, 3304, 3303, 3310, 3332, 3325, 3324, 3331
1800, 3318, 3311, 3310, 3317, 3339, 3332, 3331, 3338
1801, 3327, 3320, 3319, 3326, 3348, 3341, 3340, 3347
1802, 3334, 3327, 3326, 3333, 3355, 3348, 3347, 3354
1803, 3328, 3321, 3320, 3327, 3349, 3342, 3341, 3348
1804, 3335, 3328, 3327, 3334, 3356, 3349, 3348, 3355
1805, 3329, 3322, 3321, 3328, 3350, 3343, 3342, 3349
1806, 3336, 3329, 3328, 3335, 3357, 3350, 3349, 3356
1807, 3330, 3323, 3322, 3329, 3351, 3344, 3343, 3350
1808, 3337, 3330, 3329, 3336, 3358, 3351, 3350, 3357
1809, 3331, 3324, 3323, 3330, 3352, 3345, 3344, 3351
1810, 3338, 3331, 3330, 3337, 3359, 3352, 3351, 3358
1811, 3332, 3325, 3324, 3331, 3353, 3346, 3345, 3352
1812, 3339, 3332, 3331, 3338, 3360, 3353, 3352, 3359
1813, 3348, 3341, 3340, 3347, 3369, 3362, 3361, 3368
1814, 3355, 3348, 3347, 3354, 3376, 3369, 3368, 3375
1815, 3349, 3342, 3341, 3348, 3370, 3363, 3362, 3369
1816, 3356, 3349, 3348, 3355, 3377, 3370, 3369, 3376
1817, 3350, 3343, 3342, 3349, 3371, 3364, 3363, 3370
1818, 3357, 3350, 3349, 3356, 3378, 3371, 3370, 3377
1819, 3351, 3344, 3343, 3350, 3372, 3365, 3364, 3371
1820, 3358, 3351, 3350, 3357, 3379, 3372, 3371, 3378
1821, 3352, 3345, 3344, 3351, 3373, 3366, 3365, 3372
1822, 3359, 3352, 3351, 3358, 3380, 3373, 3372, 3379
1823, 3353, 3346, 3345, 3352, 3374, 3367, 3366, 3373
1824, 3360, 3353, 3352, 3359, 3381, 3374, 3373, 3380
1825, 3369, 3362, 3361, 3368, 3390, 3383, 3382, 3389
1826, 3376, 3369, 3368, 3375, 3397, 3390, 3389, 3396
1827, 3370, 3363, 3362, 3369, 3391, 3384, 3383, 3390
1828, 3377, 3370, 3369, 3376, 3398, 3391, 3390, 3397
1829, 3371, 3364, 3363, 3370, 3392, 3385, 3384, 3391
1830, 3378, 3371, 3370, 3377, 3399, 3392, 3391, 3398
1831, 3372, 3365, 3364, 3371, 3393, 3386, 3385, 3392
1832, 3379, 3372, 3371, 3378, 3400, 3393, 3392, 3399
1833, 3373, 3366, 3365, 3372, 3394, 3387, 3386, 3393
1834, 3380, 3373, 3372, 3379, 3401, 3394, 3393, 3400
1835, 3374, 3367, 3366, 3373, 3395, 3388, 3387, 3394
1836, 3381, 3374, 3373, 3380, 3402, 3395, 3394, 3401
1837, 3390, 3383, 3382, 3389, 3411, 3404, 3403, 3410
1838, 3397, 3390, 3389, 3396, 3418, 3411, 3410, 3417
1839, 3391, 3384, 3383, 3390, 3412, 3405, 3404, 3411
1840, 3398, 3391, 3390, 3397, 3419, 3412, 3411, 3418
1841, 3392, 3385, 3384, 3391, 3413, 3406, 3405, 3412
1842, 3399, 3392, 3391, 3398, 3420, 3413, 3412, 3419
1843, 3393, 3386, 3385, 3392, 3414, 3407, 3406, 3413
1844, 3400, 3393, 3392, 3399, 3421, 3414, 3413, 3420
1845, 3394, 3387, 3386, 3393, 3415, 3408, 3407, 3414
1846, 3401, 3394, 3393, 3400, 3422, 3415, 3414, 3421
1847, 3395, 3388, 3387, 3394, 3416, 3409, 3408, 3415
1848, 3402, 3395, 3394, 3401, 3423, 3416, 3415, 3422
1849, 3411, 3404, 3403, 3410, 3432, 3425, 3424, 3431
1850, 3418, 3411, 3410, 3417, 3439, 3432, 3431, 3438
1851, 3412, 3405, 3404, 3411, 3433, 3426, 3425, 3432
1852, 3419, 3412, 3411, 3418, 3440, 3433, 3432, 3439
1853, 3413, 3406, 3405, 3412, 3434, 3427, 3426, 3433
1854, 3420, 3413, 3412, 3419, 3441, 3434, 3433, 3440
1855, 3414, 3407, 3406, 3413, 3435, 3428, 3427, 3434
1856, 3421, 3414, 3413, 3420, 3442, 3435, 3434, 3441
1857, 3415, 3408, 3407, 3414, 3436, 3429, 3428, 3435
1858, 3422, 3415, 3414, 3421, 3443, 3436, 3435, 3442
1859, 3416, 3409, 3408, 3415, 3437, 3430, 3429, 3436
1860, 3423, 3416, 3415, 3422, 3444, 3437, 3436, 3443
1861, 3432, 3425, 3424, 3431, 3453, 3446, 3445, 3452
1862, 3439, 3432, 3431, 3438, 3460, 3453, 3452, 3459
1863, 3433, 3426, 3425, 3432, 3454, 3447, 3446, 3453
1864, 3440, 3433, 3432, 3439, 3461, 3454, 3453, 3460
1865, 3434, 3427, 3426, 3433, 3455, 3448, 3447, 3454
1866, 3441, 3434, 3433, 3440, 3462, 3455, 3454, 3461
1867, 3435, 3428, 3427, 3434, 3456, 3449, 3448, 3455
1868, 3442, 3435, 3434, 3441, 3463, 3456, 3455, 3462
1869, 3436, 3429, 3428, 3435, 3457, 3450, 3449, 3456
1870, 3443, 3436, 3435, 3442, 3464, 3457, 3456, 3463
1871, 3437, 3430, 3429, 3436, 3458, 3451, 3450, 3457
1872, 3444, 3437, 3436, 3443, 3465, 3458, 3457, 3464
1873, 3453, 3446, 3445, 3452, 3474, 3467, 3466, 3473
1874, 3460, 3453, 3452, 3459, 3481, 3474, 3473, 3480
1875, 3454, 3447, 3446, 3453, 3475, 3468, 3467, 3474
1876, 3461, 3454, 3453, 3460, 3482, 3475, 3474, 3481
1877, 3455, 3448, 3447, 3454, 3476, 3469, 3468, 3475
1878, 3462, 3455, 3454, 3461, 3483, 3476, 3475, 3482
1879, 3456, 3449, 3448, 3455, 3477, 3470, 3469, 3476
1880, 3463, 3456, 3455, 3462, 3484, 3477, 3476, 3483
1881, 3457, 3450, 3449, 3456, 3478, 3471, 3470, 3477
1882, 3464, 3457, 3456, 3463, 3485, 3478, 3477, 3484
1883, 3458, 3451, 3450, 3457, 3479, 3472, 3471, 3478
1884, 3465, 3458, 3457, 3464, 3486, 3479, 3478, 3485
1885, 3474, 3467, 3466, 3473, 3495, 3488, 3487, 3494
1886, 3481, 3474, 3473, 3480, 3502, 3495, 3494, 3501
1887, 3475, 3468, 3467, 3474, 3496, 3489, 3488, 3495
1888, 3482, 3475, 3474, 3481, 3503, 3496, 3495, 3502
1889, 3476, 3469, 3468, 3475, 3497, 3490, 3489, 3496
1890, 3483, 3476, 3475, 3482, 3504, 3497, 3496, 3503
1891, 3477, 3470, 3469, 3476, 3498, 3491, 3490, 3497
1892, 3484, 3477, 3476, 3483, 3505, 3498, 3497, 3504
1893, 3478, 3471, 3470, 3477, 3499, 3492, 3491, 3498
1894, 3485, 3478, 3477, 3484, 3506, 3499, 3498, 3505
1895, 3479, 3472, 3471, 3478, 3500, 3493, 3492, 3499
1896, 3486, 3479, 3478, 3485, 3507, 3500, 3499, 3506
1897, 3495, 3488, 3487, 3494, 3516, 3509, 3508, 3515
1898, 3502, 3495, 3494, 3501, 3523, 3516, 3515, 3522
1899, 3496, 3489, 3488, 3495, 3517, 3510, 3509, 3516
1900, 3503, 3496, 3495, 3502, 3524, 3517, 3516, 3523
1901, 3497, 3490, 3489, 3496, 3518, 3511, 3510, 3517
1902, 3504, 3497, 3496, 3503, 3525, 3518, 3517, 3524
1903, 3498, 3491, 3490, 3497, 3519, 3512, 3511, 3518
1904, 3505, 3498, 3497, 3504, 3526, 3519, 3518, 3525
1905, 3499, 3492, 3491, 3498, 3520, 3513, 3512, 3519
1906, 3506, 3499, 3498, 3505, 3527, 3520, 3519, 3526
1907, 3500, 3493, 3492, 3499, 3521, 3514, 3513, 3520
1908, 3507, 3500, 3499, 3506, 3528, 3521, 3520, 3527
1909, 3516, 3509, 3508, 3515, 3537, 3530, 3529, 3536
1910, 3523, 3516, 3515, 3522, 3544, 3537, 3536, 3543
1911, 3517, 3510, 3509, 3516, 3538, 3531, 3530, 3537
1912, 3524, 3517, 3516, 3523, 3545, 3538, 3537, 3544
1913, 3518, 3511, 3510, 3517, 3539, 3532, 3531, 3538
1914, 3525, 3518, 3517, 3524, 3546, 3539, 3538, 3545
1915, 3519, 3512, 3511, 3518, 3540, 3533, 3532, 3539
1916, 3526, 3519, 3518, 3525, 3547, 3540, 3539, 3546
1917, 3520, 3513, 3512, 3519, 3541, 3534, 3533, 3540
1918, 3527, 3520, 3519, 3526, 3548, 3541, 3540, 3547
1919, 3521, 3514, 3513, 3520, 3542, 3535, 3534, 3541
1920, 3528, 3521, 3520, 3527, 3549, 3542, 3541, 3548
1921, 3537, 3530, 3529, 3536, 3558, 3551, 3550, 3557
1922, 3544, 3537, 3536, 3543, 3565, 3558, 3557, 3564
1923, 3538, 3531, 3530, 3537, 3559, 3552, 3551, 3558
1924, 3545, 3538, 3537, 3544, 3566, 3559, 3558, 3565
1925, 3539, 3532, 3531, 3538, 3560, 3553, 3552, 3559
1926, 3546, 3539, 3538, 3545, 3567, 3560, 3559, 3566
1927, 3540, 3533, 3532, 3539, 3561, 3554, 3553, 3560
1928, 3547, 3540, 3539, 3546, 3568, 3561, 3560, 3567
1929, 3541, 3534, 3533, 3540, 3562, 3555, 3554, 3561
1930, 3548, 3541, 3540, 3547, 3569, 3562, 3561, 3568
1931, 3542, 3535, 3534, 3541, 3563, 3556, 3555, 3562
1932, 3549, 3542, 3541, 3548, 3570, 3563, 3562, 3569
1933, 3558, 3551, 3550, 3557, 3579, 3572, 3571, 3578
1934, 3565, 3558, 3557, 3564, 3586, 3579, 3578, 3585
1935, 3559, 3552, 3551, 3558, 3580, 3573, 3572, 3579
1936, 3566, 3559, 3558, 3565, 3587, 3580, 3579, 3586
1937, 3560, 3553, 3552, 3559, 3581, 3574, 3573, 3580
1938, 3567, 3560, 3559, 3566, 3588, 3581, 3580, 3587
1939, 3561, 3554, 3553, 3560, 3582, 3575, 3574, 3581
1940, 3568, 3561, 3560, 3567, 3589, 3582, 3581, 3588
1941, 3562, 3555, 3554, 3561, 3583, 3576, 3575, 3582
1942, 3569, 3562, 3561, 3568, 3590, 3583, 3582, 3589
1943, 3563, 3556, 3555, 3562, 3584, 3577, 3576, 3583
1944, 3570, 3563, 3562, 3569, 3591, 3584, 3583, 3590
1945, 3600, 3593, 3592, 3599, 3621, 3614, 3613, 3620
1946, 3607, 3600, 3599, 3606, 3628, 3621, 3620, 3627
1947, 3601, 3594, 3593, 3600, 3622, 3615, 3614, 3621
1948, 3608, 3601, 3600, 3607, 3629, 3622, 3621, 3628
1949, 3602, 3595, 3594, 3601, 3623, 3616, 3615, 3622
1950, 3609, 3602, 3601, 3608, 3630, 3623, 3622, 3629
1951, 3603, 3596, 3595, 3602, 3624, 3617, 3616, 3623
1952, 3610, 3603, 3602, 3609, 3631, 3624, 3623, 3630
1953, 3604, 3597, 3596, 3603, 3625, 3618, 3617, 3624
1954, 3611, 3604, 3603, 3610, 3632, 3625, 3624, 3631
1955, 3605, 3598, 3597, 3604, 3626, 3619, 3618, 3625
1956, 3612, 3605, 3604, 3611, 3633, 3626, 3625, 3632
1957, 3621, 3614, 3613, 3620, 3642, 3635, 3634, 3641
1958, 3628, 3621, 3620, 3627, 3649, 3642, 3641, 3648
1959, 3622, 3615, 3614, 3621, 3643, 3636, 3635, 3642
1960, 3629, 3622, 3621, 3628, 3650, 3643, 3642, 3649
1961, 3623, 3616, 3615, 3622, 3644, 3637, 3636, 3643
1962, 3630, 3623, 3622, 3629, 3651, 3644, 3643, 3650
1963, 3624, 3617, 3616, 3623, 3645, 3638, 3637, 3644
1964, 3631, 3624, 3623, 3630, 3652, 3645, 3644, 3651
1965, 3625, 3618, 3617, 3624, 3646, 3639, 3638, 3645
1966, 3632, 3625, 3624, 3631, 3653, 3646, 3645, 3652
1967, 3626, 3619, 3618, 3625, 3647, 3640, 3639, 3646
1968, 3633, 3626, 3625, 3632, 3654, 3647, 3646, 3653
1969, 3642, 3635, 3634, 3641, 3663, 3656, 3655, 3662
1970, 3649, 3642, 3641, 3648, 3670, 3663, 3662, 3669
1971, 3643, 3636, 3635, 3642, 3664, 3657, 3656, 3663
1972, 3650, 3643, 3642, 3649, 3671, 3664, 3663, 3670
1973, 3644, 3637, 3636, 3643, 3665, 3658, 3657, 3664
1974, 3651, 3644, 3643, 3650, 3672, 3665, 3664, 3671
1975, 3645, 3638, 3637, 3644, 3666, 3659, 3658, 3665
1976, 3652, 3645, 3644, 3651, 3673, 3666, 3665, 3672
1977, 3646, 3639, 3638, 3645, 3667, 3660, 3659, 3666
1978, 3653, 3646, 3645, 3652, 3674, 3667, 3666, 3673
1979, 3647, 3640, 3639, 3646, 3668, 3661, 3660, 3667
1980, 3654, 3647, 3646, 3653, 3675, 3668, 3667, 3674
1981, 3663, 3656, 3655, 3662, 3684, 3677, 3676, 3683
1982, 3670, 3663, 3662, 3669, 3691, 3684, 3683, 3690
1983, 3664, 3657, 3656, 3663, 3685, 3678, 3677, 3684
1984, 3671, 3664, 3663, 3670, 3692, 3685, 3684, 3691
1985, 3665, 3658, 3657, 3664, 3686, 3679, 3678, 3685
1986, 3672, 3665, 3664, 3671, 3693, 3686, 3685, 3692
1987, 3666, 3659, 3658, 3665, 3687, 3680, 3679, 3686
1988, 3673, 3666, 3665, 3672, 3694, 3687, 3686, 3693
1989, 3667, 3660, 3659, 3666, 3688, 3681, 3680, 3687
1990, 3674, 3667, 3666, 3673, 3695, 3688, 3687, 3694
1991, 3668, 3661, 3660, 3667, 3689, 3682, 3681, 3688
1992, 3675, 3668, 3667, 3674, 3696, 3689, 3688, 3695
1993, 3684, 3677, 3676, 3683, 3705, 3698, 3697, 3704
1994, 3691, 3684, 3683, 3690, 3712, 3705, 3704, 3711
1995, 3685, 3678, 3677, 3684, 3706, 3699, 3698, 3705
1996, 3692, 3685, 3684, 3691, 3713, 3706, 3705, 3712
1997, 3686, 3679, 3678, 3685, 3707, 3700, 3699, 3706
1998, 3693, 3686, 3685, 3692, 3714, 3707, 3706, 3713
1999, 3687, 3680, 3679, 3686, 3708, 3701, 3700, 3707
2000, 3694, 3687, 3686, 3693, 3715, 3708, 3707, 3714
2001, 3688, 3681, 3680, 3687, 3709, 3702, 3701, 3708
2002, 3695, 3688, 3687, 3694, 3716, 3709, 3708, 3715
2003, 3689, 3682, 3681, 3688, 3710, 3703, 3702, 3709
2004, 3696, 3689, 3688, 3695, 3717, 3710, 3709, 3716
2005, 3705, 3698, 3697, 3704, 3726, 3719, 3718, 3725
2006, 3712, 3705, 3704, 3711, 3733, 3726, 3725, 3732
2007, 3706, 3699, 3698, 3705, 3727, 3720, 3719, 3726
2008, 3713, 3706, 3705, 3712, 3734, 3727, 3726, 3733
2009, 3707, 3700, 3699, 3706, 3728, 3721, 3720, 3727
2010, 3714, 3707, 3706, 3713, 3735, 3728, 3727, 3734
2011, 3708, 3701, 3700, 3707, 3729, 3722, 3721, 3728
2012, 3715, 3708, 3707, 3714, 3736, 3729, 3728, 3735
2013, 3709, 3702, 3701, 3708, 3730, 3723, 3722, 3729
2014, 3716, 3709, 3708, 3715, 3737, 3730, 3729, 3736
2015, 3710, 3703, 3702, 3709, 3731, 3724, 3723, 3730
2016, 3717, 3710, 3709, 3716, 3738, 3731, 3730, 3737
2017, 3726, 3719, 3718, 3725, 3747, 3740, 3739, 3746
2018, 3733, 3726, 3725, 3732, 3754, 3747, 3746, 3753
2019, 3727, 3720, 3719, 3726, 3748, 3741, 3740, 3747
2020, 3734, 3727, 3726, 3733, 3755, 3748, 3747, 3754
2021, 3728, 3721, 3720, 3727, 3749, 3742, 3741, 3748
2022, 3735, 3728, 3727, 3734, 3756, 3749, 3748, 3755
2023, 3729, 3722, 3721, 3728, 3750, 3743, 3742, 3749
2024, 3736, 3729, 3728, 3735, 3757, 3750, 3749, 3756
2025, 3730, 3723, 3722, 3729, 3751, 3744, 3743, 3750
2026, 3737, 3730, 3729, 3736, 3758, 3751, 3750, 3757
2027, 3731, 3724, 3723, 3730, 3752, 3745, 3744, 3751
2028, 3738, 3731, 3730, 3737, 3759, 3752, 3751, 3758
2029, 3747, 3740, 3739, 3746, 3768, 3761, 3760, 3767
2030, 3754, 3747, 3746, 3753, 3775, 3768, 3767, 3774
2031, 3748, 3741, 3740, 3747, 3769, 3762, 3761, 3768
2032, 3755, 3748, 3747, 3754, 3776, 3769, 3768, 3775
2033, 3749, 3742, 3741, 3748, 3770, 3763, 3762, 3769
2034, 3756, 3749, 3748, 3755, 3777, 3770, 3769, 3776
2035, 3750, 3743, 3742, 3749, 3771, 3764, 3763, 3770
2036, 3757, 3750, 3749, 3756, 3778, 3771, 3770, 3777
2037, 3751, 3744, 3743, 3750, 3772, 3765, 3764, 3771
2038, 3758, 3751, 3750, 3757, 3779, 3772, 3771, 3778
2039, 3752, 3745, 3744, 3751, 3773, 3766, 3765, 3772
2040, 3759, 3752, 3751, 3758, 3780, 3773, 3772, 3779
2041, 3768, 3761, 3760, 3767, 3789, 3782, 3781, 3788
2042, 3775, 3768, 3767, 3774, 3796, 3789, 3788, 3795
2043, 3769, 3762, 3761, 3768, 3790, 3783, 3782, 3789
2044, 3776, 3769, 3768, 3775, 3797, 3790, 3789, 3796
2045, 3770, 3763, 3762, 3769, 3791, 3784, 3783, 3790
2046, 3777, 3770, 3769, 3776, 3798, 3791, 3790, 3797
2047, 3771, 3764, 3763, 3770, 3792, 3785, 3784, 3791
2048, 3778, 3771, 3770, 3777, 3799, 3792, 3791, 3798
2049, 3772, 3765, 3764, 3771, 3793, 3786, 3785, 3792
2050, 3779, 3772, 3771, 3778, 3800, 3793, 3792, 3799
2051, 3773, 3766, 3765, 3772, 3794, 3787, 3786, 3793
2052, 3780, 3773, 3772, 3779, 3801, 3794, 3793, 3800
2053, 3789, 3782, 3781, 3788, 3810, 3803, 3802, 3809
2054, 3796, 3789, 3788, 3795, 3817, 3810, 3809, 3816
2055, 3790, 3783, 3782, 3789, 3811, 3804, 3803, 3810
2056, 3797, 3790, 3789, 3796, 3818, 3811, 3810, 3817
2057, 3791, 3784, 3783, 3790, 3812, 3805, 3804, 3811
2058, 3798, 3791, 3790, 3797, 3819, 3812, 3811, 3818
2059, 3792, 3785, 3784, 3791, 3813, 3806, 3805, 3812
2060, 3799, 3792, 3791, 3798, 3820, 3813, 3812, 3819
2061, 3793, 3786, 3785, 3792, 3814, 3807, 3806, 3813
2062, 3800, 3793, 3792, 3799, 3821, 3814, 3813, 3820
2063, 3794, 3787, 3786, 3793, 3815, 3808, 3807, 3814
2064, 3801, 3794, 3793, 3800, 3822, 3815, 3814, 3821
2065, 3810, 3803, 3802, 3809, 3831, 3824, 3823, 3830
2066, 3817, 3810, 3809, 3816, 3838, 3831, 3830, 3837
2067, 3811, 3804, 3803, 3810, 3832, 3825, 3824, 3831
2068, 3818, 3811, 3810, 3817, 3839, 3832, 3831, 3838
2069, 3812, 3805, 3804, 3811, 3833, 3826, 3825, 3832
2070, 3819, 3812, 3811, 3818, 3840, 3833, 3832, 3839
2071, 3813, 3806, 3805, 3812, 3834, 3827, 3826, 3833
2072, 3820, 3813, 3812, 3819, 3841, 3834, 3833, 3840
2073, 3814, 3807, 3806, 3813, 3835, 3828, 3827, 3834
2074, 3821, 3814, 3813, 3820, 3842, 3835, 3834, 3841
2075, 3815, 3808, 3807, 3814, 3836, 3829, 3828, 3835
2076, 3822, 3815, 3814, 3821, 3843, 3836, 3835, 3842
2077, 3831, 3824, 3823, 3830, 3852, 3845, 3844, 3851
2078, 3838, 3831, 3830, 3837, 3859, 3852, 3851, 3858
2079, 3832, 3825, 3824, 3831, 3853, 3846, 3845, 3852
2080, 3839, 3832, 3831, 3838, 3860, 3853, 3852, 3859
2081, 3833, 3826, 3825, 3832, 3854, 3847, 3846, 3853
2082, 3840, 3833, 3832, 3839, 3861, 3854, 3853, 3860
2083, 3834, 3827, 3826, 3833, 3855, 3848, 3847, 3854
2084, 3841, 3834, 3833, 3840, 3862, 3855, 3854, 3861
2085, 3835, 3828, 3827, 3834, 3856, 3849, 3848, 3855
2086, 3842, 3835, 3834, 3841, 3863, 3856, 3855, 3862
2087, 3836, 3829, 3828, 3835, 3857, 3850, 3849, 3856
2088, 3843, 3836, 3835, 3842, 3864, 3857, 3856, 3863
2089, 3852, 3845, 3844, 3851, 3873, 3866, 3865, 3872
2090, 3859, 3852, 3851, 3858, 3880, 3873, 3872, 3879
2091, 3853, 3846, 3845, 3852, 3874, 3867, 3866, 3873
2092, 3860, 3853, 3852, 3859, 3881, 3874, 3873, 3880
2093, 3854, 3847, 3846, 3853, 3875, 3868, 3867, 3874
2094, 3861, 3854, 3853, 3860, 3882, 3875, 3874, 3881
2095, 3855, 3848, 3847, 3854, 3876, 3869, 3868, 3875
2096, 3862, 3855, 3854, 3861, 3883, 3876, 3875, 3882
2097, 3856, 3849, 3848, 3855, 3877, 3870, 3869, 3876
2098, 3863, 3856, 3855, 3862, 3884, 3877, 3876, 3883
2099, 3857, 3850, 3849, 3856, 3878, 3871, 3870, 3877
2100, 3864, 3857, 3856, 3863, 3885, 3878, 3877, 3884
2101, 3873, 3866, 3865, 3872, 3894, 3887, 3886, 3893
2102, 3880, 3873, 3872, 3879, 3901, 3894, 3893, 3900
2103, 3874, 3867, 3866, 3873, 3895, 3888, 3887, 3894
2104, 3881, 3874, 3873, 3880, 3902, 3895, 3894, 3901
2105, 3875, 3868, 3867, 3874, 3896, 3889, 3888, 3895
2106, 3882, 3875, 3874, 3881, 3903, 3896, 3895, 3902
2107, 3876, 3869, 3868, 3875, 3897, 3890, 3889, 3896
2108, 3883, 3876, 3875, 3882, 3904, 3897, 3896, 3903
2109, 3877, 3870, 3869, 3876, 3898, 3891, 3890, 3897
2110, 3884, 3877, 3876, 3883, 3905, 3898, 3897, 3904
2111, 3878, 3871, 3870, 3877, 3899, 3892, 3891, 3898
2112, 3885, 3878, 3877, 3884, 3906, 3899, 3898, 3905
2113, 3894, 3887, 3886, 3893, 3915, 3908, 3907, 3914
2114, 3901, 3894, 3893, 3900, 3922, 3915, 3914, 3921
2115, 3895, 3888, 3887, 3894, 3916, 3909, 3908, 3915
2116, 3902, 3895, 3894, 3901, 3923, 3916, 3915, 3922
2117, 3896, 3889, 3888, 3895, 3917, 3910, 3909, 3916
2118, 3903, 3896, 3895, 3902, 3924, 3917, 3916, 3923
2119, 3897, 3890, 3889, 3896, 3918, 3911, 3910, 3917
2120, 3904, 3897, 3896, 3903, 3925, 3918, 3917, 3924
2121, 3898, 3891, 3890, 3897, 3919, 3912, 3911, 3918
2122, 3905, 3898, 3897, 3904, 3926, 3919, 3918, 3925
2123, 3899, 3892, 3891, 3898, 3920, 3913, 3912, 3919
2124, 3906, 3899, 3898, 3905, 3927, 3920, 3919, 3926
2125, 3915, 3908, 3907, 3914, 3936, 3929, 3928, 3935
2126, 3922, 3915, 3914, 3921, 3943, 3936, 3935, 3942
2127, 3916, 3909, 3908, 3915, 3937, 3930, 3929, 3936
2128, 3923, 3916, 3915, 3922, 3944, 3937, 3936, 3943
2129, 3917, 3910, 3909, 3916, 3938, 3931, 3930, 3937
2130, 3924, 3917, 3916, 3923, 3945, 3938, 3937, 3944
2131, 3918, 3911, 3910, 3917, 3939, 3932, 3931, 3938
2132, 3925, 3918, 3917, 3924, 3946, 3939, 3938, 3945
2133, 3919, 3912, 3911, 3918, 3940, 3933, 3932, 3939
2134, 3926, 3919, 3918, 3925, 3947, 3940, 3939, 3946
2135, 3920, 3913, 3912, 3919, 3941, 3934, 3933, 3940
2136, 3927, 3920, 3919, 3926, 3948, 3941, 3940, 3947
2137, 3936, 3929, 3928, 3935, 3957, 3950, 3949, 3956
2138, 3943, 3936, 3935, 3942, 3964, 3957, 3956, 3963
2139, 3937, 3930, 3929, 3936, 3958, 3951, 3950, 3957
2140, 3944, 3937, 3936, 3943, 3965, 3958, 3957, 3964
2141, 3938, 3931, 3930, 3937, 3959, 3952, 3951, 3958
2142, 3945, 3938, 3937, 3944, 3966, 3959, 3958, 3965
2143, 3939, 3932, 3931, 3938, 3960, 3953, 3952, 3959
2144, 3946, 3939, 3938, 3945, 3967, 3960, 3959, 3966
2145, 3940, 3933, 3932, 3939, 3961, 3954, 3953, 3960
2146, 3947, 3940, 3939, 3946, 3968, 3961, 3960, 3967
2147, 3941, 3934, 3933, 3940, 3962, 3955, 3954, 3961
2148, 3948, 3941, 3940, 3947, 3969, 3962, 3961, 3968
2149, 3957, 3950, 3949, 3956, 3978, 3971, 3970, 3977
2150, 3964, 3957, 3956, 3963, 3985, 3978, 3977, 3984
2151, 3958, 3951, 3950, 3957, 3979, 3972, 3971, 3978
2152, 3965, 3958, 3957, 3964, 3986, 3979, 3978, 3985
2153, 3959, 3952, 3951, 3958, 3980, 3973, 3972, 3979
2154, 3966, 3959, 3958, 3965, 3987, 3980, 3979, 3986
2155, 3960, 3953, 3952, 3959, 3981, 3974, 3973, 3980
2156, 3967, 3960, 3959, 3966, 3988, 3981, 3980, 3987
2157, 3961, 3954, 3953, 3960, 3982, 3975, 3974, 3981
2158, 3968, 3961, 3960, 3967, 3989, 3982, 3981, 3988
2159, 3962, 3955, 3954, 3961, 3983, 3976, 3975, 3982
2160, 3969, 3962, 3961, 3968, 3990, 3983, 3982, 3989
2161, 3999, 3992, 3991, 3998, 4020, 4013, 4012, 4019
2162, 4006, 3999, 3998, 4005, 4027, 4020, 4019, 4026
2163, 4000, 3993, 3992, 3999, 4021, 4014, 4013, 4020
2164, 4007, 4000, 3999, 4006, 4028, 4021, 4020, 4027
2165, 4001, 3994, 3993, 4000, 4022, 4015, 4014, 4021
2166, 4008, 4001, 4000, 4007, 4029, 4022, 4021, 4028
2167, 4002, 3995, 3994, 4001, 4023, 4016, 4015, 4022
2168, 4009, 4002, 4001, 4008, 4030, 4023, 4022, 4029
2169, 4003, 3996, 3995, 4002, 4024, 4017, 4016, 4023
2170, 4010, 4003, 4002, 4009, 4031, 4024, 4023, 4030
2171, 4004, 3997, 3996, 4003, 4025, 4018, 4017, 4024
2172, 4011, 4004, 4003, 4010, 4032, 4025, 4024, 4031
2173, 4020, 4013, 4012, 4019, 4041, 4034, 4033, 4040
2174, 4027, 4020, 4019, 4026, 4048, 4041, 4040, 4047
2175, 4021, 4014, 4013, 4020, 4042, 4035, 4034, 4041
2176, 4028, 4021, 4020, 4027, 4049, 4042, 4041, 4048
2177, 4022, 4015, 4014, 4021, 4043, 4036, 4035, 4042
2178, 4029, 4022, 4021, 4028, 4050, 4043, 4042, 4049
2179, 4023, 4016, 4015, 4022, 4044, 4037, 4036, 4043
2180, 4030, 4023, 4022, 4029, 4051, 4044, 4043, 4050
2181, 4024, 4017, 4016, 4023, 4045, 4038, 4037, 4044
2182, 4031, 4024, 4023, 4030, 4052, 4045, 4044, 4051
2183, 4025, 4018, 4017, 4024, 4046, 4039, 4038, 4045
2184, 4032, 4025, 4024, 4031, 4053, 4046, 4045, 4052
2185, 4041, 4034, 4033, 4040, 4062, 4055, 4054, 4061
2186, 4048, 4041, 4040, 4047, 4069, 4062, 4061, 4068
2187, 4042, 4035, 4034, 4041, 4063, 4056, 4055, 4062
2188, 4049, 4042, 4041, 4048, 4070, 4063, 4062, 4069
2189, 4043, 4036, 4035, 4042, 4064, 4057, 4056, 4063
2190, 4050, 4043, 4042, 4049, 4071, 4064, 4063, 4070
2191, 4044, 4037, 4036, 4043, 4065, 4058, 4057, 4064
2192, 4051, 4044, 4043, 4050, 4072, 4065, 4064, 4071
2193, 4045, 4038, 4037, 4044, 4066, 4059, 4058, 4065
2194, 4052, 4045, 4044, 4051, 4073, 4066, 4065, 4072
2195, 4046, 4039, 4038, 4045, 4067, 4060, 4059, 4066
2196, 4053, 4046, 4045, 4052, 4074, 4067, 4066, 4073
2197, 4062, 4055, 4054, 4061, 4083, 4076, 4075, 4082
2198, 4069, 4062, 4061, 4068, 4090, 4083, 4082, 4089
2199, 4063, 4056, 4055, 4062, 4084, 4077, 4076, 4083
2200, 4070, 4063, 4062, 4069, 4091, 4084, 4083, 4090
2201, 4064, 4057, 4056, 4063, 4085, 4078, 4077, 4084
2202, 4071, 4064, 4063, 4070, 4092, 4085, 4084, 4091
2203, 4065, 4058, 4057, 4064, 4086, 4079, 4078, 4085
2204, 4072, 4065, 4064, 4071, 4093, 4086, 4085, 4092
2205, 4066, 4059, 4058, 4065, 4087, 4080, 4079, 4086
2206, 4073, 4066, 4065, 4072, 4094, 4087, 4086, 4093
2207, 4067, 4060, 4059, 4066, 4088, 4081, 4080, 4087
2208, 4074, 4067, 4066, 4073, 4095, 4088, 4087, 4094
2209, 4083, 4076, 4075, 4082, 4104, 4097, 4096, 4103
2210, 4090, 4083, 4082, 4089, 4111, 4104, 4103, 4110
2211, 4084, 4077, 4076, 4083, 4105, 4098, 4097, 4104
2212, 4091, 4084, 4083, 4090, 4112, 4105, 4104, 4111
2213, 4085, 4078, 4077, 4084, 4106, 4099, 4098, 4105
2214, 4092, 4085, 4084, 4091, 4113, 4106, 4105, 4112
2215, 4086, 4079, 4078, 4085, 4107, 4100, 4099, 4106
2216, 4093, 4086, 4085, 4092, 4114, 4107, 4106, 4113
2217, 4087, 4080, 4079, 4086, 4108, 4101, 4100, 4107
2218, 4094, 4087, 4086, 4093, 4115, 4108, 4107, 4114
2219, 4088, 4081, 4080, 4087, 4109, 4102, 4101, 4108
2220, 4095, 4088, 4087, 4094, 4116, 4109, 4108, 4115
2221, 4104, 4097, 4096, 4103, 4125, 4118, 4117, 4124
2222, 4111, 4104, 4103, 4110, 4132, 4125, 4124, 4131
2223, 4105, 4098, 4097, 4104, 4126, 4119, 4118, 4125
2224, 4112, 4105, 4104, 4111, 4133, 4126, 4125, 4132
2225, 4106, 4099, 4098, 4105, 4127, 4120, 4119, 4126
2226, 4113, 4106, 4105, 4112, 4134, 4127, 4126, 4133
2227, 4107, 4100, 4099, 4106, 4128, 4121, 4120, 4127
2228, 4114, 4107, 4106, 4113, 4135, 4128, 4127, 4134
2229, 4108, 4101, 4100, 4107, 4129, 4122, 4121, 4128
2230, 4115, 4108, 4107, 4114, 4136, 4129, 4128, 4135
2231, 4109, 4102, 4101, 4108, 4130, 4123, 4122, 4129
2232, 4116, 4109, 4108, 4115, 4137, 4130, 4129, 4136
2233, 4125, 4118, 4117, 4124, 4146, 4139, 4138, 4145
2234, 4132, 4125, 4124, 4131, 4153, 4146, 4145, 4152
2235, 4126, 4119, 4118, 4125, 4147, 4140, 4139, 4146
2236, 4133, 4126, 4125, 4132, 4154, 4147, 4146, 4153
2237, 4127, 4120, 4119, 4126, 4148, 4141, 4140, 4147
2238, 4134, 4127, 4126, 4133, 4155, 4148, 4147, 4154
2239, 4128, 4121, 4120, 4127, 4149, 4142, 4141, 4148
2240, 4135, 4128, 4127, 4134, 4156, 4149, 4148, 4155
2241, 4129, 4122, 4121, 4128, 4150, 4143, 4142, 4149
2242, 4136, 4129, 4128, 4135, 4157, 4150, 4149, 4156
2243, 4130, 4123, 4122, 4129, 4151, 4144, 4143, 4150
2244, 4137, 4130, 4129, 4136, 4158, 4151, 4150, 4157
2245, 4146, 4139, 4138, 4145, 4167, 4160, 4159, 4166
2246, 4153, 4146, 4145, 4152, 4174, 4167, 4166, 4173
2247, 4147, 4140, 4139, 4146, 4168, 4161, 4160, 4167
2248, 4154, 4147, 4146, 4153, 4175, 4168, 4167, 4174
2249, 4148, 4141, 4140, 4147, 4169, 4162, 4161, 4168
2250, 4155, 4148, 4147, 4154, 4176, 4169, 4168, 4175
2251, 4149, 4142, 4141, 4148, 4170, 4163, 4162, 4169
2252, 4156, 4149, 4148, 4155, 4177, 4170, 4169, 4176
2253, 4150, 4143, 4142, 4149, 4171, 4164, 4163, 4170
2254, 4157, 4150, 4149, 4156, 4178, 4171, 4170, 4177
2255, 4151, 4144, 4143, 4150, 4172, 4165, 4164, 4171
2256, 4158, 4151, 4150, 4157, 4179, 4172, 4171, 4178
2257, 4167, 4160, 4159, 4166, 4188, 4181, 4180, 4187
2258, 4174, 4167, 4166, 4173, 4195, 4188, 4187, 4194
2259, 4168, 4161, 4160, 4167, 4189, 4182, 4181, 4188
2260, 4175, 4168, 4167, 4174, 4196, 4189, 4188, 4195
2261, 4169, 4162, 4161, 4168, 4190, 4183, 4182, 4189
2262, 4176, 4169, 4168, 4175, 4197, 4190, 4189, 4196
2263, 4170, 4163, 4162, 4169, 4191, 4184, 4183, 4190
2264, 4177, 4170, 4169, 4176, 4198, 4191, 4190, 4197
2265, 4171, 4164, 4163, 4170, 4192, 4185, 4184, 4191
2266, 4178, 4171, 4170, 4177, 4199, 4192, 4191, 4198
2267, 4172, 4165, 4164, 4171, 4193, 4186, 4185, 4192
2268, 4179, 4172, 4171, 4178, 4200, 4193, 4192, 4199
2269, 4188, 4181, 4180, 4187, 4209, 4202, 4201, 4208
2270, 4195, 4188, 4187, 4194, 4216, 4209, 4208, 4215
2271, 4189, 4182, 4181, 4188, 4210, 4203, 4202, 4209
2272, 4196, 4189, 4188, 4195, 4217, 4210, 4209, 4216
2273, 4190, 4183, 4182, 4189, 4211, 4204, 4203, 4210
2274, 4197, 4190, 4189, 4196, 4218, 4211, 4210, 4217
2275, 4191, 4184, 4183, 4190, 4212, 4205, 4204, 4211
2276, 4198, 4191, 4190, 4197, 4219, 4212, 4211, 4218
2277, 4192, 4185, 4184, 4191, 4213, 4206, 4205, 4212
2278, 4199, 4192, 4191, 4198, 4220, 4213, 4212, 4219
2279, 4193, 4186, 4185, 4192, 4214, 4207, 4206, 4213
2280, 4200, 4193, 4192, 4199, 4221, 4214, 4213, 4220
2281, 4209, 4202, 4201, 4208, 4230, 4223, 4222, 4229
2282, 4216, 4209, 4208, 4215, 4237, 4230, 4229, 4236
2283, 4210, 4203, 4202, 4209, 4231, 4224, 4223, 4230
2284, 4217, 4210, 4209, 4216, 4238, 4231, 4230, 4237
2285, 4211, 4204, 4203, 4210, 4232, 4225, 4224, 4231
2286, 4218, 4211, 4210, 4217, 4239, 4232, 4231, 4238
2287, 4212, 4205, 4204, 4211, 4233, 4226, 4225, 4232
2288, 4219, 4212, 4211, 4218, 4240, 4233, 4232, 4239
2289, 4213, 4206, 4205, 4212, 4234, 4227, 4226, 4233
2290, 4220, 4213, 4212, 4219, 4241, 4234, 4233, 4240
2291, 4214, 4207, 4206, 4213, 4235, 4228, 4227, 4234
2292, 4221, 4214, 4213, 4220, 4242, 4235, 4234, 4241
2293, 4230, 4223, 4222, 4229, 4251, 4244, 4243, 4250
2294, 4237, 4230, 4229, 4236, 4258, 4251, 4250, 4257
2295, 4231, 4224, 4223, 4230, 4252, 4245, 4244, 4251
2296, 4238, 4231, 4230, 4237, 4259, 4252, 4251, 4258
2297, 4232, 4225, 4224, 4231, 4253, 4246, 4245, 4252
2298, 4239, 4232, 4231, 4238, 4260, 4253, 4252, 4259
2299, 4233, 4226, 4225, 4232, 4254, 4247, 4246, 4253
2300, 4240, 4233, 4232, 4239, 4261, 4254, 4253, 4260
2301, 4234, 4227, 4226, 4233, 4255, 4248, 4247, 4254
2302, 4241, 4234, 4233, 4240, 4262, 4255, 4254, 4261
2303, 4235, 4228, 4227, 4234, 4256, 4249, 4248, 4255
2304, 4242, 4235, 4234, 4241, 4263, 4256, 4255, 4262
2305, 4251, 4244, 4243, 4250, 4272, 4265, 4264, 4271
2306, 4258, 4251, 4250, 4257, 4279, 4272, 4271, 4278
2307, 4252, 4245, 4244, 4251, 4273, 4266, 4265, 4272
2308, 4259, 4252, 4251, 4258, 4280, 4273, 4272, 4279
2309, 4253, 4246, 4245, 4252, 4274, 4267, 4266, 4273
2310, 4260, 4253, 4252, 4259, 4281, 4274, 4273, 4280
2311, 4254, 4247, 4246, 4253, 4275, 4268, 4267, 4274
2312, 4261, 4254, 4253, 4260, 4282, 4275, 4274, 4281
2313, 4255, 4248, 4247, 4254, 4276, 4269, 4268, 4275
2314, 4262, 4255, 4254, 4261, 4283, 4276, 4275, 4282
2315, 4256, 4249, 4248, 4255, 4277, 4270, 4269, 4276
2316, 4263, 4256, 4255, 4262, 4284, 4277, 4276, 4283
2317, 4272, 4265, 4264, 4271, 4293, 4286, 4285, 4292
2318, 4279, 4272, 4271, 4278, 4300, 4293, 4292, 4299
2319, 4273, 4266, 4265, 4272, 4294, 4287, 4286, 4293
2320, 4280, 4273, 4272, 4279, 4301, 4294, 4293, 4300
2321, 4274, 4267, 4266, 4273, 4295, 4288, 4287, 4294
2322, 4281, 4274, 4273, 4280, 4302, 4295, 4294, 4301
2323, 4275, 4268, 4267, 4274, 4296, 4289, 4288, 4295
2324, 4282, 4275, 4274, 4281, 4303, 4296, 4295, 4302
2325, 4276, 4269, 4268, 4275, 4297, 4290, 4289, 4296
2326, 4283, 4276, 4275, 4282, 4304, 4297, 4296, 4303
2327, 4277, 4270, 4269, 4276, 4298, 4291, 4290, 4297
2328, 4284, 4277, 4276, 4283, 4305, 4298, 4297, 4304
2329, 4293, 4286, 4285, 4292, 4314, 4307, 4306, 4313
2330, 4300, 4293, 4292, 4299, 4321, 4314, 4313, 4320
2331, 4294, 4287, 4286, 4293, 4315, 4308, 4307, 4314
2332, 4301, 4294, 4293, 4300, 4322, 4315, 4314, 4321
2333, 4295, 4288, 4287, 4294, 4316, 4309, 4308, 4315
2334, 4302, 4295, 4294, 4301, 4323, 4316, 4315, 4322
2335, 4296, 4289, 4288, 4295, 4317, 4310, 4309, 4316
2336, 4303, 4296, 4295, 4302, 4324, 4317, 4316, 4323
2337, 4297, 4290, 4289, 4296, 4318, 4311, 4310, 4317
2338, 4304, 4297, 4296, 4303, 4325, 4318, 4317, 4324
2339, 4298, 4291, 4290, 4297, 4319, 4312, 4311, 4318
2340, 4305, 4298, 4297, 4304, 4326, 4319, 4318, 4325
2341, 4314, 4307, 4306, 4313, 4335, 4328, 4327, 4334
2342, 4321, 4314, 4313, 4320, 4342, 4335, 4334, 4341
2343, 4315, 4308, 4307, 4314, 4336, 4329, 4328, 4335
2344, 4322, 4315, 4314, 4321, 4343, 4336, 4335, 4342
2345, 4316, 4309, 4308, 4315, 4337, 4330, 4329, 4336
2346, 4323, 4316, 4315, 4322, 4344, 4337, 4336, 4343
2347, 4317, 4310, 4309, 4316, 4338, 4331, 4330, 4337
2348, 4324, 4317, 4316, 4323, 4345, 4338, 4337, 4344
2349, 4318, 4311, 4310, 4317, 4339, 4332, 4331, 4338
2350, 4325, 4318, 4317, 4324, 4346, 4339, 4338, 4345
2351, 4319, 4312, 4311, 4318, 4340, 4333, 4332, 4339
2352, 4326, 4319, 4318, 4325, 4347, 4340, 4339, 4346
2353, 4335, 4328, 4327, 4334, 4356, 4349, 4348, 4355
2354, 4342, 4335, 4334, 4341, 4363, 4356, 4355, 4362
2355, 4336, 4329, 4328, 4335, 4357, 4350, 4349, 4356
2356, 4343, 4336, 4335, 4342, 4364, 4357, 4356, 4363
2357, 4337, 4330, 4329, 4336, 4358, 4351, 4350, 4357
2358, 4344, 4337, 4336, 4343, 4365, 4358, 4357, 4364
2359, 4338, 4331, 4330, 4337, 4359, 4352, 4351, 4358
2360, 4345, 4338, 4337, 4344, 4366, 4359, 4358, 4365
2361, 4339, 4332, 4331, 4338, 4360, 4353, 4352, 4359
2362, 4346, 4339, 4338, 4345, 4367, 4360, 4359, 4366
2363, 4340, 4333, 4332, 4339, 4361, 4354, 4353, 4360
2364, 4347, 4340, 4339, 4346, 4368, 4361, 4360, 4367
2365, 4356, 4349, 4348, 4355, 4377, 4370, 4369, 4376
2366, 4363, 4356, 4355, 4362, 4384, 4377, 4376, 4383
2367, 4357, 4350, 4349, 4356, 4378, 4371, 4370, 4377
2368, 4364, 4357, 4356, 4363, 4385, 4378, 4377, 4384
2369, 4358, 4351, 4350, 4357, 4379, 4372, 4371, 4378
2370, 4365, 4358, 4357, 4364, 4386, 4379, 4378, 4385
2371, 4359, 4352, 4351, 4358, 4380, 4373, 4372, 4379
2372, 4366, 4359, 4358, 4365, 4387, 4380, 4379, 4386
2373, 4360, 4353, 4352, 4359, 4381, 4374, 4373, 4380
2374, 4367, 4360, 4359, 4366, 4388, 4381, 4380, 4387
2375, 4361, 4354, 4353, 4360, 4382, 4375, 4374, 4381
2376, 4368, 4361, 4360, 4367, 4389, 4382, 4381, 4388
2377, 4398, 4391, 4390, 4397, 4419, 4412, 4411, 4418
2378, 4405, 4398, 4397, 4404, 4426, 4419, 4418, 4425
2379, 4399, 4392, 4391, 4398, 4420, 4413, 4412, 4419
2380, 4406, 4399, 4398, 4405, 4427, 4420, 4419, 4426
2381, 4400, 4393, 4392, 4399, 4421, 4414, 4413, 4420
2382, 4407, 4400, 4399, 4406, 4428, 4421, 4420, 4427
2383, 4401, 4394, 4393, 4400, 4422, 4415, 4414, 4421
2384, 4408, 4401, 4400, 4407, 4429, 4422, 4421, 4428
2385, 4402, 4395, 4394, 4401, 4423, 4416, 4415, 4422
2386, 4409, 4402, 4401, 4408, 4430, 4423, 4422, 4429
2387, 4403, 4396, 4395, 4402, 4424, 4417, 4416, 4423
2388, 4410, 4403, 4402, 4409, 4431, 4424, 4423, 4430
2389, 4419, 4412, 4411, 4418, 4440, 4433, 4432, 4439
2390, 4426, 4419, 4418, 4425, 4447, 4440, 4439, 4446
2391, 4420, 4413, 4412, 4419, 4441, 4434, 4433, 4440
2392, 4427, 4420, 4419, 4426, 4448, 4441, 4440, 4447
2393, 4421, 4414, 4413, 4420, 4442, 4435, 4434, 4441
2394, 4428, 4421, 4420, 4427, 4449, 4442, 4441, 4448
2395, 4422, 4415, 4414, 4421, 4443, 4436, 4435, 4442
2396, 4429, 4422, 4421, 4428, 4450, 4443, 4442, 4449
2397, 4423, 4416, 4415, 4422, 4444, 4437, 4436, 4443
2398, 4430, 4423, 4422, 4429, 4451, 4444, 4443, 4450
2399, 4424, 4417, 4416, 4423, 4445, 4438, 4437, 4444
2400, 4431, 4424, 4423, 4430, 4452, 4445, 4444, 4451
2401, 4440, 4433, 4432, 4439, 4461, 4454, 4453, 4460
2402, 4447, 4440, 4439, 4446, 4468, 4461, 4460, 4467
2403, 4441, 4434, 4433, 4440, 4462, 4455, 4454, 4461
2404, 4448, 4441, 4440, 4447, 4469, 4462, 4461, 4468
2405, 4442, 4435, 4434, 4441, 4463, 4456, 4455, 4462
2406, 4449, 4442, 4441, 4448, 4470, 4463, 4462, 4469
2407, 4443, 4436, 4435, 4442, 4464, 4457, 4456, 4463
2408, 4450, 4443, 4442, 4449, 4471, 4464, 4463, 4470
2409, 4444, 4437, 4436, 4443, 4465, 4458, 4457, 4464
2410, 4451, 4444, 4443, 4450, 4472, 4465, 4464, 4471
2411, 4445, 4438, 4437, 4444, 4466, 4459, 4458, 4465
2412, 4452, 4445, 4444, 4451, 4473, 4466, 4465, 4472
2413, 4461, 4454, 4453, 4460, 4482, 4475, 4474, 4481
2414, 4468, 4461, 4460, 4467, 4489, 4482, 4481, 4488
2415, 4462, 4455, 4454, 4461, 4483, 4476, 4475, 4482
2416, 4469, 4462, 4461, 4468, 4490, 4483, 4482, 4489
2417, 4463, 4456, 4455, 4462, 4484, 4477, 4476, 4483
2418, 4470, 4463, 4462, 4469, 4491, 4484, 4483, 4490
2419, 4464, 4457, 4456, 4463, 4485, 4478, 4477, 4484
2420, 4471, 4464, 4463, 4470, 4492, 4485, 4484, 4491
2421, 4465, 4458, 4457, 4464, 4486, 4479, 4478, 4485
2422, 4472, 4465, 4464, 4471, 4493, 4486, 4485, 4492
2423, 4466, 4459, 4458, 4465, 4487, 4480, 4479, 4486
2424, 4473, 4466, 4465, 4472, 4494, 4487, 4486, 4493
2425, 4482, 4475, 4474, 4481, 4503, 4496, 4495, 4502
2426, 4489, 4482, 4481, 4488, 4510, 4503, 4502, 4509
2427, 4483, 4476, 4475, 4482, 4504, 4497, 4496, 4503
2428, 4490, 4483, 4482, 4489, 4511, 4504, 4503, 4510
2429, 4484, 4477, 4476, 4483, 4505, 4498, 4497, 4504
2430, 4491, 4484, 4483, 4490, 4512, 4505, 4504, 4511
2431, 4485, 4478, 4477, 4484, 4506, 4499, 4498, 4505
2432, 4492, 4485, 4484, 4491, 4513, 4506, 4505, 4512
2433, 4486, 4479, 4478, 4485, 4507, 4500, 4499, 4506
2434, 4493, 4486, 4485, 4492, 4514, 4507, 4506, 4513
2435, 4487, 4480, 4479, 4486, 4508, 4501, 4500, 4507
2436, 4494, 4487, 4486, 4493, 4515, 4508, 4507, 4514
2437, 4503, 4496, 4495, 4502, 4524, 4517, 4516, 4523
2438, 4510, 4503, 4502, 4509, 4531, 4524, 4523, 4530
2439, 4504, 4497, 4496, 4503, 4525, 4518, 4517, 4524
2440, 4511, 4504, 4503, 4510, 4532, 4525, 4524, 4531
2441, 4505, 4498, 4497, 4504, 4526, 4519, 4518, 4525
2442, 4512, 4505, 4504, 4511, 4533, 4526, 4525, 4532
2443, 4506, 4499, 4498, 4505, 4527, 4520, 4519, 4526
2444, 4513, 4506, 4505, 4512, 4534, 4527, 4526, 4533
2445, 4507, 4500, 4499, 4506, 4528, 4521, 4520, 4527
2446, 4514, 4507, 4506, 4513, 4535, 4528, 4527, 4534
2447, 4508, 4501, 4500, 4507, 4529, 4522, 4521, 4528
2448, 4515, 4508, 4507, 4514, 4536, 4529, 4528, 4535
2449, 4524, 4517, 4516, 4523, 4545, 4538, 4537, 4544
2450, 4531, 4524, 4523, 4530, 4552, 4545, 4544, 4551
2451, 4525, 4518, 4517, 4524, 4546, 4539, 4538, 4545
2452, 4532, 4525, 4524, 4531, 4553, 4546, 4545, 4552
2453, 4526, 4519, 4518, 4525, 4547, 4540, 4539, 4546
2454, 4533, 4526, 4525, 4532, 4554, 4547, 4546, 4553
2455, 4527, 4520, 4519, 4526, 4548, 4541, 4540, 4547
2456, 4534, 4527, 4526, 4533, 4555, 4548, 4547, 4554
2457, 4528, 4521, 4520, 4527, 4549, 4542, 4541, 4548
2458, 4535, 4528, 4527, 4534, 4556, 4549, 4548, 4555
2459, 4529, 4522, 4521, 4528, 4550, 4543, 4542, 4549
2460, 4536, 4529, 4528, 4535, 4557, 4550, 4549, 4556
2461, 4545, 4538, 4537, 4544, 4566, 4559, 4558, 4565
2462, 4552, 4545, 4544, 4551, 4573, 4566, 4565, 4572
2463, 4546, 4539, 4538, 4545, 4567, 4560, 4559, 4566
2464, 4553, 4546, 4545, 4552, 4574, 4567, 4566, 4573
2465, 4547, 4540, 4539, 4546, 4568, 4561, 4560, 4567
2466, 4554, 4547, 4546, 4553, 4575, 4568, 4567, 4574
2467, 4548, 4541, 4540, 4547, 4569, 4562, 4561, 4568
2468, 4555, 4548, 4547, 4554, 4576, 4569, 4568, 4575
2469, 4549, 4542, 4541, 4548, 4570, 4563, 4562, 4569
2470, 4556, 4549, 4548, 4555, 4577, 4570, 4569, 4576
2471, 4550, 4543, 4542, 4549, 4571, 4564, 4563, 4570
2472, 4557, 4550, 4549, 4556, 4578, 4571, 4570, 4577
2473, 4566, 4559, 4558, 4565, 4587, 4580, 4579, 4586
2474, 4573, 4566, 4565, 4572, 4594, 4587, 4586, 4593
2475, 4567, 4560, 4559, 4566, 4588, 4581, 4580, 4587
2476, 4574, 4567, 4566, 4573, 4595, 4588, 4587, 4594
2477, 4568, 4561, 4560, 4567, 4589, 4582, 4581, 4588
2478, 4575, 4568, 4567, 4574, 4596, 4589, 4588, 4595
2479, 4569, 4562, 4561, 4568, 4590, 4583, 4582, 4589
2480, 4576, 4569, 4568, 4575, 4597, 4590, 4589, 4596
2481, 4570, 4563, 4562, 4569, 4591, 4584, 4583, 4590
2482, 4577, 4570, 4569, 4576, 4598, 4591, 4590, 4597
2483, 4571, 4564, 4563, 4570, 4592, 4585, 4584, 4591
2484, 4578, 4571, 4570, 4577, 4599, 4592, 4591, 4598
2485, 4587, 4580, 4579, 4586, 4608, 4601, 4600, 4607
2486, 4594, 4587, 4586, 4593, 4615, 4608, 4607, 4614
2487, 4588, 4581, 4580, 4587, 4609, 4602, 4601, 4608
2488, 4595, 4588, 4587, 4594, 4616, 4609, 4608, 4615
2489, 4589, 4582, 4581, 4588, 4610, 4603, 4602, 4609
2490, 4596, 4589, 4588, 4595, 4617, 4610, 4609, 4616
2491, 4590, 4583, 4582, 4589, 4611, 4604, 4603, 4610
2492, 4597, 4590, 4589, 4596, 4618, 4611, 4610, 4617
2493, 4591, 4584, 4583, 4590, 4612, 4605, 4604, 4611
2494, 4598, 4591, 4590, 4597, 4619, 4612, 4611, 4618
2495, 4592, 4585, 4584, 4591, 4613, 4606, 4605, 4612
2496, 4599, 4592, 4591, 4598, 4620, 4613, 4612, 4619
2497, 4608, 4601, 4600, 4607, 4629, 4622, 4621, 4628
2498, 4615, 4608, 4607, 4614, 4636, 4629, 4628, 4635
2499, 4609, 4602, 4601, 4608, 4630, 4623, 4622, 4629
2500, 4616, 4609, 4608, 4615, 4637, 4630, 4629, 4636
2501, 4610, 4603, 4602, 4609, 4631, 4624, 4623, 4630
2502, 4617, 4610, 4609, 4616, 4638, 4631, 4630, 4637
2503, 4611, 4604, 4603, 4610, 4632, 4625, 4624, 4631
2504, 4618, 4611, 4610, 4617, 4639, 4632, 4631, 4638
2505, 4612, 4605, 4604, 4611, 4633, 4626, 4625, 4632
2506, 4619, 4612, 4611, 4618, 4640, 4633, 4632, 4639
2507, 4613, 4606, 4605, 4612, 4634, 4627, 4626, 4633
2508, 4620, 4613, 4612, 4619, 4641, 4634, 4633, 4640
2509, 4629, 4622, 4621, 4628, 4650, 4643, 4642, 4649
2510, 4636, 4629, 4628, 4635, 4657, 4650, 4649, 4656
2511, 4630, 4623, 4622, 4629, 4651, 4644, 4643, 4650
2512, 4637, 4630, 4629, 4636, 4658, 4651, 4650, 4657
2513, 4631, 4624, 4623, 4630, 4652, 4645, 4644, 4651
2514, 4638, 4631, 4630, 4637, 4659, 4652, 4651, 4658
2515, 4632, 4625, 4624, 4631, 4653, 4646, 4645, 4652
2516, 4639, 4632, 4631, 4638, 4660, 4653, 4652, 4659
2517, 4633, 4626, 4625, 4632, 4654, 4647, 4646, 4653
2518, 4640, 4633, 4632, 4639, 4661, 4654, 4653, 4660
2519, 4634, 4627, 4626, 4633, 4655, 4648, 4647, 4654
2520, 4641, 4634, 4633, 4640, 4662, 4655, 4654, 4661
2521, 4650, 4643, 4642, 4649, 4671, 4664, 4663, 4670
2522, 4657, 4650, 4649, 4656, 4678, 4671, 4670, 4677
2523, 4651, 4644, 4643, 4650, 4672, 4665, 4664, 4671
2524, 4658, 4651, 4650, 4657, 4679, 4672, 4671, 4678
2525, 4652, 4645, 4644, 4651, 4673, 4666, 4665, 4672
2526, 4659, 4652, 4651, 4658, 4680, 4673, 4672, 4679
2527, 4653, 4646, 4645, 4652, 4674, 4667, 4666, 4673
2528, 4660, 4653, 4652, 4659, 4681, 4674, 4673, 4680
2529, 4654, 4647, 4646, 4653, 4675, 4668, 4667, 4674
2530, 4661, 4654, 4653, 4660, 4682, 4675, 4674, 4681
2531, 4655, 4648, 4647, 4654, 4676, 4669, 4668, 4675
2532, 4662, 4655, 4654, 4661, 4683, 4676, 4675, 4682
2533, 4671, 4664, 4663, 4670, 4692, 4685, 4684, 4691
2534, 4678, 4671, 4670, 4677, 4699, 4692, 4691, 4698
2535, 4672, 4665, 4664, 4671, 4693, 4686, 4685, 4692
2536, 4679, 4672, 4671, 4678, 4700, 4693, 4692, 4699
2537, 4673, 4666, 4665, 4672, 4694, 4687, 4686, 4693
2538, 4680, 4673, 4672, 4679, 4701, 4694, 4693, 4700
2539, 4674, 4667, 4666, 4673, 4695, 4688, 4687, 4694
2540, 4681, 4674, 4673, 4680, 4702, 4695, 4694, 4701
2541, 4675, 4668, 4667, 4674, 4696, 4689, 4688, 4695
2542, 4682, 4675, 4674, 4681, 4703, 4696, 4695, 4702
2543, 4676, 4669, 4668, 4675, 4697, 4690, 4689, 4696
2544, 4683, 4676, 4675, 4682, 4704, 4697, 4696, 4703
2545, 4692, 4685, 4684, 4691, 4713, 4706, 4705, 4712
2546, 4699, 4692, 4691, 4698, 4720, 4713, 4712, 4719
2547, 4693, 4686, 4685, 4692, 4714, 4707, 4706, 4713
2548, 4700, 4693, 4692, 4699, 4721, 4714, 4713, 4720
2549, 4694, 4687, 4686, 4693, 4715, 4708, 4707, 4714
2550, 4701, 4694, 4693, 4700, 4722, 4715, 4714, 4721
2551, 4695, 4688, 4687, 4694, 4716, 4709, 4708, 4715
2552, 4702, 4695, 4694, 4701, 4723, 4716, 4715, 4722
2553, 4696, 4689, 4688, 4695, 4717, 4710, 4709, 4716
2554, 4703, 4696, 4695, 4702, 4724, 4717, 4716, 4723
2555, 4697, 4690, 4689, 4696, 4718, 4711, 4710, 4717
2556, 4704, 4697, 4696, 4703, 4725, 4718, 4717, 4724
2557, 4713, 4706, 4705, 4712, 4734, 4727, 4726, 4733
2558, 4720, 4713, 4712, 4719, 4741, 4734, 4733, 4740
2559, 4714, 4707, 4706, 4713, 4735, 4728, 4727, 4734
2560, 4721, 4714, 4713, 4720, 4742, 4735, 4734, 4741
2561, 4715, 4708, 4707, 4714, 4736, 4729, 4728, 4735
2562, 4722, 4715, 4714, 4721, 4743, 4736, 4735, 4742
2563, 4716, 4709, 4708, 4715, 4737, 4730, 4729, 4736
2564, 4723, 4716, 4715, 4722, 4744, 4737, 4736, 4743
2565, 4717, 4710, 4709, 4716, 4738, 4731, 4730, 4737
2566, 4724, 4717, 4716, 4723, 4745, 4738, 4737, 4744
2567, 4718, 4711, 4710, 4717, 4739, 4732, 4731, 4738
2568, 4725, 4718, 4717, 4724, 4746, 4739, 4738, 4745
2569, 4734, 4727, 4726, 4733, 4755, 4748, 4747, 4754
2570, 4741, 4734, 4733, 4740, 4762, 4755, 4754, 4761
2571, 4735, 4728, 4727, 4734, 4756, 4749, 4748, 4755
2572, 4742, 4735, 4734, 4741, 4763, 4756, 4755, 4762
2573, 4736, 4729, 4728, 4735, 4757, 4750, 4749, 4756
2574, 4743, 4736, 4735, 4742, 4764, 4757, 4756, 4763
2575, 4737, 4730, 4729, 4736, 4758, 4751, 4750, 4757
2576, 4744, 4737, 4736, 4743, 4765, 4758, 4757, 4764
2577, 4738, 4731, 4730, 4737, 4759, 4752, 4751, 4758
2578, 4745, 4738, 4737, 4744, 4766, 4759, 4758, 4765
2579, 4739, 4732, 4731, 4738, 4760, 4753, 4752, 4759
2580, 4746, 4739, 4738, 4745, 4767, 4760, 4759, 4766
2581, 4755, 4748, 4747, 4754, 4776, 4769, 4768, 4775
2582, 4762, 4755, 4754, 4761, 4783, 4776, 4775, 4782
2583, 4756, 4749, 4748, 4755, 4777, 4770, 4769, 4776
2584, 4763, 4756, 4755, 4762, 4784, 4777, 4776, 4783
2585, 4757, 4750, 4749, 4756, 4778, 4771, 4770, 4777
2586, 4764, 4757, 4756, 4763, 4785, 4778, 4777, 4784
2587, 4758, 4751, 4750, 4757, 4779, 4772, 4771, 4778
2588, 4765, 4758, 4757, 4764, 4786, 4779, 4778, 4785
2589, 4759, 4752, 4751, 4758, 4780, 4773, 4772, 4779
2590, 4766, 4759, 4758, 4765, 4787, 4780, 4779, 4786
2591, 4760, 4753, 4752, 4759, 4781, 4774, 4773, 4780
2592, 4767, 4760, 4759, 4766, 4788, 4781, 4780, 4787
2593, 4797, 4790, 4789, 4796, 4818, 4811, 4810, 4817
2594, 4804, 4797, 4796, 4803, 4825, 4818, 4817, 4824
2595, 4798, 4791, 4790, 4797, 4819, 4812, 4811, 4818
2596, 4805, 4798, 4797, 4804, 4826, 4819, 4818, 4825
2597, 4799, 4792, 4791, 4798, 4820, 4813, 4812, 4819
2598, 4806, 4799, 4798, 4805, 4827, 4820, 4819, 4826
2599, 4800, 4793, 4792, 4799, 4821, 4814, 4813, 4820
2600, 4807, 4800, 4799, 4806, 4828, 4821, 4820, 4827
2601, 4801, 4794, 4793, 4800, 4822, 4815, 4814, 4821
2602, 4808, 4801, 4800, 4807, 4829, 4822, 4821, 4828
2603, 4802, 4795, 4794, 4801, 4823, 4816, 4815, 4822
2604, 4809, 4802, 4801, 4808, 4830, 4823, 4822, 4829
2605, 4818, 4811, 4810, 4817, 4839, 4832, 4831, 4838
2606, 4825, 4818, 4817, 4824, 4846, 4839, 4838, 4845
2607, 4819, 4812, 4811, 4818, 4840, 4833, 4832, 4839
2608, 4826, 4819, 4818, 4825, 4847, 4840, 4839, 4846
2609, 4820, 4813, 4812, 4819, 4841, 4834, 4833, 4840
2610, 4827, 4820, 4819, 4826, 4848, 4841, 4840, 4847
2611, 4821, 4814, 4813, 4820, 4842, 4835, 4834, 4841
2612, 4828, 4821, 4820, 4827, 4849, 4842, 4841, 4848
2613, 4822, 4815, 4814, 4821, 4843, 4836, 4835, 4842
2614, 4829, 4822, 4821, 4828, 4850, 4843, 4842, 4849
2615, 4823, 4816, 4815, 4822, 4844, 4837, 4836, 4843
2616, 4830, 4823, 4822, 4829, 4851, 4844, 4843, 4850
2617, 4839, 4832, 4831, 4838, 4860, 4853, 4852, 4859
2618, 4846, 4839, 4838, 4845, 4867, 4860, 4859, 4866
2619, 4840, 4833, 4832, 4839, 4861, 4854, 4853, 4860
2620, 4847, 4840, 4839, 4846, 4868, 4861, 4860, 4867
2621, 4841, 4834, 4833, 4840, 4862, 4855, 4854, 4861
2622, 4848, 4841, 4840, 4847, 4869, 4862, 4861, 4868
2623, 4842, 4835, 4834, 4841, 4863, 4856, 4855, 4862
2624, 4849, 4842, 4841, 4848, 4870, 4863, 4862, 4869
2625, 4843, 4836, 4835, 4842, 4864, 4857, 4856, 4863
2626, 4850, 4843, 4842, 4849, 4871, 4864, 4863, 4870
2627, 4844, 4837, 4836, 4843, 4865, 4858, 4857, 4864
2628, 4851, 4844, 4843, 4850, 4872, 4865, 4864, 4871
2629, 4860, 4853, 4852, 4859, 4881, 4874, 4873, 4880
2630, 4867, 4860, 4859, 4866, 4888, 4881, 4880, 4887
2631, 4861, 4854, 4853, 4860, 4882, 4875, 4874, 4881
2632, 4868, 4861, 4860, 4867, 4889, 4882, 4881, 4888
2633, 4862, 4855, 4854, 4861, 4883, 4876, 4875, 4882
2634, 4869, 4862, 4861, 4868, 4890, 4883, 4882, 4889
2635, 4863, 4856, 4855, 4862, 4884, 4877, 4876, 4883
2636, 4870, 4863, 4862, 4869, 4891, 4884, 4883, 4890
2637, 4864, 4857, 4856, 4863, 4885, 4878, 4877, 4884
2638, 4871, 4864, 4863, 4870, 4892, 4885, 4884, 4891
2639, 4865, 4858, 4857, 4864, 4886, 4879, 4878, 4885
2640, 4872, 4865, 4864, 4871, 4893, 4886, 4885, 4892
2641, 4881, 4874, 4873, 4880, 4902, 4895, 4894, 4901
2642, 4888, 4881, 4880, 4887, 4909, 4902, 4901, 4908
2643, 4882, 4875, 4874, 4881, 4903, 4896, 4895, 4902
2644, 4889, 4882, 4881, 4888, 4910, 4903, 4902, 4909
2645, 4883, 4876, 4875, 4882, 4904, 4897, 4896, 4903
2646, 4890, 4883, 4882, 4889, 4911, 4904, 4903, 4910
2647, 4884, 4877, 4876, 4883, 4905, 4898, 4897, 4904
2648, 4891, 4884, 4883, 4890, 4912, 4905, 4904, 4911
2649, 4885, 4878, 4877, 4884, 4906, 4899, 4898, 4905
2650, 4892, 4885, 4884, 4891, 4913, 4906, 4905, 4912
2651, 4886, 4879, 4878, 4885, 4907, 4900, 4899, 4906
2652, 4893, 4886, 4885, 4892, 4914, 4907, 4906, 4913
2653, 4902, 4895, 4894, 4901, 4923, 4916, 4915, 4922
2654, 4909, 4902, 4901, 4908, 4930, 4923, 4922, 4929
2655, 4903, 4896, 4895, 4902, 4924, 4917, 4916, 4923
2656, 4910, 4903, 4902, 4909, 4931, 4924, 4923, 4930
2657, 4904, 4897, 4896, 4903, 4925, 4918, 4917, 4924
2658, 4911, 4904, 4903, 4910, 4932, 4925, 4924, 4931
2659, 4905, 4898, 4897, 4904, 4926, 4919, 4918, 4925
2660, 4912, 4905, 4904, 4911, 4933, 4926, 4925, 4932
2661, 4906, 4899, 4898, 4905, 4927, 4920, 4919, 4926
2662, 4913, 4906, 4905, 4912, 4934, 4927, 4926, 4933
2663, 4907, 4900, 4899, 4906, 4928, 4921, 4920, 4927
2664, 4914, 4907, 4906, 4913, 4935, 4928, 4927, 4934
2665, 4923, 4916, 4915, 4922, 4944, 4937, 4936, 4943
2666, 4930, 4923, 4922, 4929, 4951, 4944, 4943, 4950
2667, 4924, 4917, 4916, 4923, 4945, 4938, 4937, 4944
2668, 4931, 4924, 4923, 4930, 4952, 4945, 4944, 4951
2669, 4925, 4918, 4917, 4924, 4946, 4939, 4938, 4945
2670, 4932, 4925, 4924, 4931, 4953, 4946, 4945, 4952
2671, 4926, 4919, 4918, 4925, 4947, 4940, 4939, 4946
2672, 4933, 4926, 4925, 4932, 4954, 4947, 4946, 4953
2673, 4927, 4920, 4919, 4926, 4948, 4941, 4940, 4947
2674, 4934, 4927, 4926, 4933, 4955, 4948, 4947, 4954
2675, 4928, 4921, 4920, 4927, 4949, 4942, 4941, 4948
2676, 4935, 4928, 4927, 4934, 4956, 4949, 4948, 4955
2677, 4944, 4937, 4936, 4943, 4965, 4958, 4957, 4964
2678, 4951, 4944, 4943, 4950, 4972, 4965, 4964, 4971
2679, 4945, 4938, 4937, 4944, 4966, 4959, 4958, 4965
2680, 4952, 4945, 4944, 4951, 4973, 4966, 4965, 4972
2681, 4946, 4939, 4938, 4945, 4967, 4960, 4959, 4966
2682, 4953, 4946, 4945, 4952, 4974, 4967, 4966, 4973
2683, 4947, 4940, 4939, 4946, 4968, 4961, 4960, 4967
2684, 4954, 4947, 4946, 4953, 4975, 4968, 4967, 4974
2685, 4948, 4941, 4940, 4947, 4969, 4962, 4961, 4968
2686, 4955, 4948, 4947, 4954, 4976, 4969, 4968, 4975
2687, 4949, 4942, 4941, 4948, 4970, 4963, 4962, 4969
2688, 4956, 4949, 4948, 4955, 4977, 4970, 4969, 4976
2689, 4965, 4958, 4957, 4964, 4986, 4979, 4978, 4985
2690, 4972, 4965, 4964, 4971, 4993, 4986, 4985, 4992
2691, 4966, 4959, 4958, 4965, 4987, 4980, 4979, 4986
2692, 4973, 4966, 4965, 4972, 4994, 4987, 4986, 4993
2693, 4967, 4960, 4959, 4966, 4988, 4981, 4980, 4987
2694, 4974, 4967, 4966, 4973, 4995, 4988, 4987, 4994
2695, 4968, 4961, 4960, 4967, 4989, 4982, 4981, 4988
2696, 4975, 4968, 4967, 4974, 4996, 4989, 4988, 4995
2697, 4969, 4962, 4961, 4968, 4990, 4983, 4982, 4989
2698, 4976, 4969, 4968, 4975, 4997, 4990, 4989, 4996
2699, 4970, 4963, 4962, 4969, 4991, 4984, 4983, 4990
2700, 4977, 4970, 4969, 4976, 4998, 4991, 4990, 4997
2701, 4986, 4979, 4978, 4985, 5007, 5000, 4999, 5006
2702, 4993, 4986, 4985, 4992, 5014, 5007, 5006, 5013
2703, 4987, 4980, 4979, 4986, 5008, 5001, 5000, 5007
2704, 4994, 4987, 4986, 4993, 5015, 5008, 5007, 5014
2705, 4988, 4981, 4980, 4987, 5009, 5002, 5001, 5008
2706, 4995, 4988, 4987, 4994, 5016, 5009, 5008, 5015
2707, 4989, 4982, 4981, 4988, 5010, 5003, 5002, 5009
2708, 4996, 4989, 4988, 4995, 5017, 5010, 5009, 5016
2709, 4990, 4983, 4982, 4989, 5011, 5004, 5003, 5010
2710, 4997, 4990, 4989, 4996, 5018, 5011, 5010, 5017
2711, 4991, 4984, 4983, 4990, 5012, 5005, 5004, 5011
2712, 4998, 4991, 4990, 4997, 5019, 5012, 5011, 5018
2713, 5007, 5000, 4999, 5006, 5028, 5021, 5020, 5027
2714, 5014, 5007, 5006, 5013, 5035, 5028, 5027, 5034
2715, 5008, 5001, 5000, 5007, 5029, 5022, 5021, 5028
2716, 5015, 5008, 5007, 5014, 5036, 5029, 5028, 5035
2717, 5009, 5002, 5001, 5008, 5030, 5023, 5022, 5029
2718, 5016, 5009, 5008, 5015, 5037, 5030, 5029, 5036
2719, 5010, 5003, 5002, 5009, 5031, 5024, 5023, 5030
2720, 5017, 5010, 5009, 5016, 5038, 5031, 5030, 5037
2721, 5011, 5004, 5003, 5010, 5032, 5025, 5024, 5031
2722, 5018, 5011, 5010, 5017, 5039, 5032, 5031, 5038
2723, 5012, 5005, 5004, 5011, 5033, 5026, 5025, 5032
2724, 5019, 5012, 5011, 5018, 5040, 5033, 5032, 5039
2725, 5028, 5021, 5020, 5027, 5049, 5042, 5041, 5048
2726, 5035, 5028, 5027, 5034, 5056, 5049, 5048, 5055
2727, 5029, 5022, 5021, 5028, 5050, 5043, 5042, 5049
2728, 5036, 5029, 5028, 5035, 5057, 5050, 5049, 5056
2729, 5030, 5023, 5022, 5029, 5051, 5044, 5043, 5050
2730, 5037, 5030, 5029, 5036, 5058, 5051, 5050, 5057
2731, 5031, 5024, 5023, 5030, 5052, 5045, 5044, 5051
2732, 5038, 5031, 5030, 5037, 5059, 5052, 5051, 5058
2733, 5032, 5025, 5024, 5031, 5053, 5046, 5045, 5052
2734, 5039, 5032, 5031, 5038, 5060, 5053, 5052, 5059
2735, 5033, 5026, 5025, 5032, 5054, 5047, 5046, 5053
2736, 5040, 5033, 5032, 5039, 5061, 5054, 5053, 5060
2737, 5049, 5042, 5041, 5048, 5070, 5063, 5062, 5069
2738, 5056, 5049, 5048, 5055, 5077, 5070, 5069, 5076
2739, 5050, 5043, 5042, 5049, 5071, 5064, 5063, 5070
2740, 5057, 5050, 5049, 5056, 5078, 5071, 5070, 5077
2741, 5051, 5044, 5043, 5050, 5072, 5065, 5064, 5071
2742, 5058, 5051, 5050, 5057, 5079, 5072, 5071, 5078
2743, 5052, 5045, 5044, 5051, 5073, 5066, 5065, 5072
2744, 5059, 5052, 5051, 5058, 5080, 5073, 5072, 5079
2745, 5053, 5046, 5045, 5052, 5074, 5067, 5066, 5073
2746, 5060, 5053, 5052, 5059, 5081, 5074, 5073, 5080
2747, 5054, 5047, 5046, 5053, 5075, 5068, 5067, 5074
2748, 5061, 5054, 5053, 5060, 5082, 5075, 5074, 5081
2749, 5070, 5063, 5062, 5069, 5091, 5084, 5083, 5090
2750, 5077, 5070, 5069, 5076, 5098, 5091, 5090, 5097
2751, 5071, 5064, 5063, 5070, 5092, 5085, 5084, 5091
2752, 5078, 5071, 5070, 5077, 5099, 5092, 5091, 5098
2753, 5072, 5065, 5064, 5071, 5093, 5086, 5085, 5092
2754, 5079, 5072, 5071, 5078, 5100, 5093, 5092, 5099
2755, 5073, 5066, 5065, 5072, 5094, 5087, 5086, 5093
2756, 5080, 5073, 5072, 5079, 5101, 5094, 5093, 5100
2757, 5074, 5067, 5066, 5073, 5095, 5088, 5087, 5094
2758, 5081, 5074, 5073, 5080, 5102, 5095, 5094, 5101
2759, 5075, 5068, 5067, 5074, 5096, 5089, 5088, 5095
2760, 5082, 5075, 5074, 5081, 5103, 5096, 5095, 5102
2761, 5091, 5084, 5083, 5090, 5112, 5105, 5104, 5111
2762, 5098, 5091, 5090, 5097, 5119, 5112, 5111, 5118
2763, 5092, 5085, 5084, 5091, 5113, 5106, 5105, 5112
2764, 5099, 5092, 5091, 5098, 5120, 5113, 5112, 5119
2765, 5093, 5086, 5085, 5092, 5114, 5107, 5106, 5113
2766, 5100, 5093, 5092, 5099, 5121, 5114, 5113, 5120
2767, 5094, 5087, 5086, 5093, 5115, 5108, 5107, 5114
2768, 5101, 5094, 5093, 5100, 5122, 5115, 5114, 5121
2769, 5095, 5088, 5087, 5094, 5116, 5109, 5108, 5115
2770, 5102, 5095, 5094, 5101, 5123, 5116, 5115, 5122
2771, 5096, 5089, 5088, 5095, 5117, 5110, 5109, 5116
2772, 5103, 5096, 5095, 5102, 5124, 5117, 5116, 5123
2773, 5112, 5105, 5104, 5111, 5133, 5126, 5125, 5132
2774, 5119, 5112, 5111, 5118, 5140, 5133, 5132, 5139
2775, 5113, 5106, 5105, 5112, 5134, 5127, 5126, 5133
2776, 5120, 5113, 5112, 5119, 5141, 5134, 5133, 5140
2777, 5114, 5107, 5106, 5113, 5135, 5128, 5127, 5134
2778, 5121, 5114, 5113, 5120, 5142, 5135, 5134, 5141
2779, 5115, 5108, 5107, 5114, 5136, 5129, 5128, 5135
2780, 5122, 5115, 5114, 5121, 5143, 5136, 5135, 5142
2781, 5116, 5109, 5108, 5115, 5137, 5130, 5129, 5136
2782, 5123, 5116, 5115, 5122, 5144, 5137, 5136, 5143
2783, 5117, 5110, 5109, 5116, 5138, 5131, 5130, 5137
2784, 5124, 5117, 5116, 5123, 5145, 5138, 5137, 5144
2785, 5133, 5126, 5125, 5132, 5154, 5147, 5146, 5153
2786, 5140, 5133, 5132, 5139, 5161, 5154, 5153, 5160
2787, 5134, 5127, 5126, 5133, 5155, 5148, 5147, 5154
2788, 5141, 5134, 5133, 5140, 5162, 5155, 5154, 5161
2789, 5135, 5128, 5127, 5134, 5156, 5149, 5148, 5155
2790, 5142, 5135, 5134, 5141, 5163, 5156, 5155, 5162
2791, 5136, 5129, 5128, 5135, 5157, 5150, 5149, 5156
2792, 5143, 5136, 5135, 5142, 5164, 5157, 5156, 5163
2793, 5137, 5130, 5129, 5136, 5158, 5151, 5150, 5157
2794, 5144, 5137, 5136, 5143, 5165, 5158, 5157, 5164
2795, 5138, 5131, 5130, 5137, 5159, 5152, 5151, 5158
2796, 5145, 5138, 5137, 5144, 5166, 5159, 5158, 5165
2797, 5154, 5147, 5146, 5153, 5175, 5168, 5167, 5174
2798, 5161, 5154, 5153, 5160, 5182, 5175, 5174, 5181
2799, 5155, 5148, 5147, 5154, 5176, 5169, 5168, 5175
2800, 5162, 5155, 5154, 5161, 5183, 5176, 5175, 5182
2801, 5156, 5149, 5148, 5155, 5177, 5170, 5169, 5176
2802, 5163, 5156, 5155, 5162, 5184, 5177, 5176, 5183
2803, 5157, 5150, 5149, 5156, 5178, 5171, 5170, 5177
2804, 5164, 5157, 5156, 5163, 5185, 5178, 5177, 5184
2805, 5158, 5151, 5150, 5157, 5179, 5172, 5171, 5178
2806, 5165, 5158, 5157, 5164, 5186, 5179, 5178, 5185
2807, 5159, 5152, 5151, 5158, 5180, 5173, 5172, 5179
2808, 5166, 5159, 5158, 5165, 5187, 5180, 5179, 5186
2809, 5196, 5189, 5188, 5195, 5217, 5210, 5209, 5216
2810, 5203, 5196, 5195, 5202, 5224, 5217, 5216, 5223
2811, 5197, 5190, 5189, 5196, 5218, 5211, 5210, 5217
2812, 5204, 5197, 5196, 5203, 5225, 5218, 5217, 5224
2813, 5198, 5191, 5190, 5197, 5219, 5212, 5211, 5218
2814, 5205, 5198, 5197, 5204, 5226, 5219, 5218, 5225
2815, 5199, 5192, 5191, 5198, 5220, 5213, 5212, 5219
2816, 5206, 5199, 5198, 5205, 5227, 5220, 5219, 5226
2817, 5200, 5193, 5192, 5199, 5221, 5214, 5213, 5220
2818, 5207, 5200, 5199, 5206, 5228, 5221, 5220, 5227
2819, 5201, 5194, 5193, 5200, 5222, 5215, 5214, 5221
2820, 5208, 5201, 5200, 5207, 5229, 5222, 5221, 5228
2821, 5217, 5210, 5209, 5216, 5238, 5231, 5230, 5237
2822, 5224, 5217, 5216, 5223, 5245, 5238, 5237, 5244
2823, 5218, 5211, 5210, 5217, 5239, 5232, 5231, 5238
2824, 5225, 5218, 5217, 5224, 5246, 5239, 5238, 5245
2825, 5219, 5212, 5211, 5218, 5240, 5233, 5232, 5239
2826, 5226, 5219, 5218, 5225, 5247, 5240, 5239, 5246
2827, 5220, 5213, 5212, 5219, 5241, 5234, 5233, 5240
2828, 5227, 5220, 5219, 5226, 5248, 5241, 5240, 5247
2829, 5221, 5214, 5213, 5220, 5242, 5235, 5234, 5241
2830, 5228, 5221, 5220, 5227, 5249, 5242, 5241, 5248
2831, 5222, 5215, 5214, 5221, 5243, 5236, 5235, 5242
2832, 5229, 5222, 5221, 5228, 5250, 5243, 5242, 5249
2833, 5238, 5231, 5230, 5237, 5259, 5252, 5251, 5258
2834, 5245, 5238, 5237, 5244, 5266, 5259, 5258, 5265
2835, 5239, 5232, 5231, 5238, 5260, 5253, 5252, 5259
2836, 5246, 5239, 5238, 5245, 5267, 5260, 5259, 5266
2837, 5240, 5233, 5232, 5239, 5261, 5254, 5253, 5260
2838, 5247, 5240, 5239, 5246, 5268, 5261, 5260, 5267
2839, 5241, 5234, 5233, 5240, 5262, 5255, 5254, 5261
2840, 5248, 5241, 5240, 5247, 5269, 5262, 5261, 5268
2841, 5242, 5235, 5234, 5241, 5263, 5256, 5255, 5262
2842, 5249, 5242, 5241, 5248, 5270, 5263, 5262, 5269
2843, 5243, 5236, 5235, 5242, 5264, 5257, 5256, 5263
2844, 5250, 5243, 5242, 5249, 5271, 5264, 5263, 5270
2845, 5259, 5252, 5251, 5258, 5280, 5273, 5272, 5279
2846, 5266, 5259, 5258, 5265, 5287, 5280, 5279, 5286
2847, 5260, 5253, 5252, 5259, 5281, 5274, 5273, 5280
2848, 5267, 5260, 5259, 5266, 5288, 5281, 5280, 5287
2849, 5261, 5254, 5253, 5260, 5282, 5275, 5274, 5281
2850, 5268, 5261, 5260, 5267, 5289, 5282, 5281, 5288
2851, 5262, 5255, 5254, 5261, 5283, 5276, 5275, 5282
2852, 5269, 5262, 5261, 5268, 5290, 5283, 5282, 5289
2853, 5263, 5256, 5255, 5262, 5284, 5277, 5276, 5283
2854, 5270, 5263, 5262, 5269, 5291, 5284, 5283, 5290
2855, 5264, 5257, 5256, 5263, 5285, 5278, 5277, 5284
2856, 5271, 5264, 5263, 5270, 5292, 5285, 5284, 5291
2857, 5280, 5273, 5272, 5279, 5301, 5294, 5293, 5300
2858, 5287, 5280, 5279, 5286, 5308, 5301, 5300, 5307
2859, 5281, 5274, 5273, 5280, 5302, 5295, 5294, 5301
2860, 5288, 5281, 5280, 5287, 5309, 5302, 5301, 5308
2861, 5282, 5275, 5274, 5281, 5303, 5296, 5295, 5302
2862, 5289, 5282, 5281, 5288, 5310, 5303, 5302, 5309
2863, 5283, 5276, 5275, 5282, 5304, 5297, 5296, 5303
2864, 5290, 5283, 5282, 5289, 5311, 5304, 5303, 5310
2865, 5284, 5277, 5276, 5283, 5305, 5298, 5297, 5304
2866, 5291, 5284, 5283, 5290, 5312, 5305, 5304, 5311
2867, 5285, 5278, 5277, 5284, 5306, 5299, 5298, 5305
2868, 5292, 5285, 5284, 5291, 5313, 5306, 5305, 5312
2869, 5301, 5294, 5293, 5300, 5322, 5315, 5314, 5321
2870, 5308, 5301, 5300, 5307, 5329, 5322, 5321, 5328
2871, 5302, 5295, 5294, 5301, 5323, 5316, 5315, 5322
2872, 5309, 5302, 5301, 5308, 5330, 5323, 5322, 5329
2873, 5303, 5296, 5295, 5302, 5324, 5317, 5316, 5323
2874, 5310, 5303, 5302, 5309, 5331, 5324, 5323, 5330
2875, 5304, 5297, 5296, 5303, 5325, 5318, 5317, 5324
2876, 5311, 5304, 5303, 5310, 5332, 5325, 5324, 5331
2877, 5305, 5298, 5297, 5304, 5326, 5319, 5318, 5325
2878, 5312, 5305, 5304, 5311, 5333, 5326, 5325, 5332
2879, 5306, 5299, 5298, 5305, 5327, 5320, 5319, 5326
2880, 5313, 5306, 5305, 5312, 5334, 5327, 5326, 5333
2881, 5322, 5315, 5314, 5321, 5343, 5336, 5335, 5342
2882, 5329, 5322, 5321, 5328, 5350, 5343, 5342, 5349
2883, 5323, 5316, 5315, 5322, 5344, 5337, 5336, 5343
2884, 5330, 5323, 5322, 5329, 5351, 5344, 5343, 5350
2885, 5324, 5317, 5316, 5323, 5345, 5338, 5337, 5344
2886, 5331, 5324, 5323, 5330, 5352, 5345, 5344, 5351
2887, 5325, 5318, 5317, 5324, 5346, 5339, 5338, 5345
2888, 5332, 5325, 5324, 5331, 5353, 5346, 5345, 5352
2889, 5326, 5319, 5318, 5325, 5347, 5340, 5339, 5346
2890, 5333, 5326, 5325, 5332, 5354, 5347, 5346, 5353
2891, 5327, 5320, 5319, 5326, 5348, 5341, 5340, 5347
2892, 5334, 5327, 5326, 5333, 5355, 5348, 5347, 5354
2893, 5343, 5336, 5335, 5342, 5364, 5357, 5356, 5363
2894, 5350, 5343, 5342, 5349, 5371, 5364, 5363, 5370
2895, 5344, 5337, 5336, 5343, 5365, 5358, 5357, 5364
2896, 5351, 5344, 5343, 5350, 5372, 5365, 5364, 5371
2897, 5345, 5338, 5337, 5344, 5366, 5359, 5358, 5365
2898, 5352, 5345, 5344, 5351, 5373, 5366, 5365, 5372
2899, 5346, 5339, 5338, 5345, 5367, 5360, 5359, 5366
2900, 5353, 5346, 5345, 5352, 5374, 5367, 5366, 5373
2901, 5347, 5340, 5339, 5346, 5368, 5361, 5360, 5367
2902, 5354, 5347, 5346, 5353, 5375, 5368, 5367, 5374
2903, 5348, 5341, 5340, 5347, 5369, 5362, 5361, 5368
2904, 5355, 5348, 5347, 5354, 5376, 5369, 5368, 5375
2905, 5364, 5357, 5356, 5363, 5385, 5378, 5377, 5384
2906, 5371, 5364, 5363, 5370, 5392, 5385, 5384, 5391
2907, 5365, 5358, 5357, 5364, 5386, 5379, 5378, 5385
2908, 5372, 5365, 5364, 5371, 5393, 5386, 5385, 5392
2909, 5366, 5359, 5358, 5365, 5387, 5380, 5379, 5386
2910, 5373, 5366, 5365, 5372, 5394, 5387, 5386, 5393
2911, 5367, 5360, 5359, 5366, 5388, 5381, 5380, 5387
2912, 5374, 5367, 5366, 5373, 5395, 5388, 5387, 5394
2913, 5368, 5361, 5360, 5367, 5389, 5382, 5381, 5388
2914, 5375, 5368, 5367, 5374, 5396, 5389, 5388, 5395
2915, 5369, 5362, 5361, 5368, 5390, 5383, 5382, 5389
2916, 5376, 5369, 5368, 5375, 5397, 5390, 5389, 5396
2917, 5385, 5378, 5377, 5384, 5406, 5399, 5398, 5405
2918, 5392, 5385, 5384, 5391, 5413, 5406, 5405, 5412
2919, 5386, 5379, 5378, 5385, 5407, 5400, 5399, 5406
2920, 5393, 5386, 5385, 5392, 5414, 5407, 5406, 5413
2921, 5387, 5380, 5379, 5386, 5408, 5401, 5400, 5407
2922, 5394, 5387, 5386, 5393, 5415, 5408, 5407, 5414
2923, 5388, 5381, 5380, 5387, 5409, 5402, 5401, 5408
2924, 5395, 5388, 5387, 5394, 5416, 5409, 5408, 5415
2925, 5389, 5382, 5381, 5388, 5410, 5403, 5402, 5409
2926, 5396, 5389, 5388, 5395, 5417, 5410, 5409, 5416
2927, 5390, 5383, 5382, 5389, 5411, 5404, 5403, 5410
2928, 5397, 5390, 5389, 5396, 5418, 5411, 5410, 5417
2929, 5406, 5399, 5398, 5405, 5427, 5420, 5419, 5426
2930, 5413, 5406, 5405, 5412, 5434, 5427, 5426, 5433
2931, 5407, 5400, 5399, 5406, 5428, 5421, 5420, 5427
2932, 5414, 5407, 5406, 5413, 5435, 5428, 5427, 5434
2933, 5408, 5401, 5400, 5407, 5429, 5422, 5421, 5428
2934, 5415, 5408, 5407, 5414, 5436, 5429, 5428, 5435
2935, 5409, 5402, 5401, 5408, 5430, 5423, 5422, 5429
2936, 5416, 5409, 5408, 5415, 5437, 5430, 5429, 5436
2937, 5410, 5403, 5402, 5409, 5431, 5424, 5423, 5430
2938, 5417, 5410, 5409, 5416, 5438, 5431, 5430, 5437
2939, 5411, 5404, 5403, 5410, 5432, 5425, 5424, 5431
2940, 5418, 5411, 5410, 5417, 5439, 5432, 5431, 5438
2941, 5427, 5420, 5419, 5426, 5448, 5441, 5440, 5447
2942, 5434, 5427, 5426, 5433, 5455, 5448, 5447, 5454
2943, 5428, 5421, 5420, 5427, 5449, 5442, 5441, 5448
2944, 5435, 5428, 5427, 5434, 5456, 5449, 5448, 5455
2945, 5429, 5422, 5421, 5428, 5450, 5443, 5442, 5449
2946, 5436, 5429, 5428, 5435, 5457, 5450, 5449, 5456
2947, 5430, 5423, 5422, 5429, 5451, 5444, 5443, 5450
2948, 5437, 5430, 5429, 5436, 5458, 5451, 5450, 5457
2949, 5431, 5424, 5423, 5430, 5452, 5445, 5444, 5451
2950, 5438, 5431, 5430, 5437, 5459, 5452, 5451, 5458
2951, 5432, 5425, 5424, 5431, 5453, 5446, 5445, 5452
2952, 5439, 5432, 5431, 5438, 5460, 5453, 5452, 5459
2953, 5448, 5441, 5440, 5447, 5469, 5462, 5461, 5468
2954, 5455, 5448, 5447, 5454, 5476, 5469, 5468, 5475
2955, 5449, 5442, 5441, 5448, 5470, 5463, 5462, 5469
2956, 5456, 5449, 5448, 5455, 5477, 5470, 5469, 5476
2957, 5450, 5443, 5442, 5449, 5471, 5464, 5463, 5470
2958, 5457, 5450, 5449, 5456, 5478, 5471, 5470, 5477
2959, 5451, 5444, 5443, 5450, 5472, 5465, 5464, 5471
2960, 5458, 5451, 5450, 5457, 5479, 5472, 5471, 5478
2961, 5452, 5445, 5444, 5451, 5473, 5466, 5465, 5472
2962, 5459, 5452, 5451, 5458, 5480, 5473, 5472, 5479
2963, 5453, 5446, 5445, 5452, 5474, 5467, 5466, 5473
2964, 5460, 5453, 5452, 5459, 5481, 5474, 5473, 5480
2965, 5469, 5462, 5461, 5468, 5490, 5483, 5482, 5489
2966, 5476, 5469, 5468, 5475, 5497, 5490, 5489, 5496
2967, 5470, 5463, 5462, 5469, 5491, 5484, 5483, 5490
2968, 5477, 5470, 5469, 5476, 5498, 5491, 5490, 5497
2969, 5471, 5464, 5463, 5470, 5492, 5485, 5484, 5491
2970, 5478, 5471, 5470, 5477, 5499, 5492, 5491, 5498
2971, 5472, 5465, 5464, 5471, 5493, 5486, 5485, 5492
2972, 5479, 5472, 5471, 5478, 5500, 5493, 5492, 5499
2973, 5473, 5466, 5465, 5472, 5494, 5487, 5486, 5493
2974, 5480, 5473, 5472, 5479, 5501, 5494, 5493, 5500
2975, 5474, 5467, 5466, 5473, 5495, 5488, 5487, 5494
2976, 5481, 5474, 5473, 5480, 5502, 5495, 5494, 5501
2977, 5490, 5483, 5482, 5489, 5511, 5504, 5503, 5510
2978, 5497, 5490, 5489, 5496, 5518, 5511, 5510, 5517
2979, 5491, 5484, 5483, 5490, 5512, 5505, 5504, 5511
2980, 5498, 5491, 5490, 5497, 5519, 5512, 5511, 5518
2981, 5492, 5485, 5484, 5491, 5513, 5506, 5505, 5512
2982, 5499, 5492, 5491, 5498, 5520, 5513, 5512, 5519
2983, 5493, 5486, 5485, 5492, 5514, 5507, 5506, 5513
2984, 5500, 5493, 5492, 5499, 5521, 5514, 5513, 5520
2985, 5494, 5487, 5486, 5493, 5515, 5508, 5507, 5514
2986, 5501, 5494, 5493, 5500, 5522, 5515, 5514, 5521
2987, 5495, 5488, 5487, 5494, 5516, 5509, 5508, 5515
2988, 5502, 5495, 5494, 5501, 5523, 5516, 5515, 5522
2989, 5511, 5504, 5503, 5510, 5532, 5525, 5524, 5531
2990, 5518, 5511, 5510, 5517, 5539, 5532, 5531, 5538
2991, 5512, 5505, 5504, 5511, 5533, 5526, 5525, 5532
2992, 5519, 5512, 5511, 5518, 5540, 5533, 5532, 5539
2993, 5513, 5506, 5505, 5512, 5534, 5527, 5526, 5533
2994, 5520, 5513, 5512, 5519, 5541, 5534, 5533, 5540
2995, 5514, 5507, 5506, 5513, 5535, 5528, 5527, 5534
2996, 5521, 5514, 5513, 5520, 5542, 5535, 5534, 5541
2997, 5515, 5508, 5507, 5514, 5536, 5529, 5528, 5535
2998, 5522, 5515, 5514, 5521, 5543, 5536, 5535, 5542
2999, 5516, 5509, 5508, 5515, 5537, 5530, 5529, 5536
3000, 5523, 5516, 5515, 5522, 5544, 5537, 5536, 5543
3001, 5532, 5525, 5524, 5531, 5553, 5546, 5545, 5552
3002, 5539, 5532, 5531, 5538, 5560, 5553, 5552, 5559
3003, 5533, 5526, 5525, 5532, 5554, 5547, 5546, 5553
3004, 5540, 5533, 5532, 5539, 5561, 5554, 5553, 5560
3005, 5534, 5527, 5526, 5533, 5555, 5548, 5547, 5554
3006, 5541, 5534, 5533, 5540, 5562, 5555, 5554, 5561
3007, 5535, 5528, 5527, 5534, 5556, 5549, 5548, 5555
3008, 5542, 5535, 5534, 5541, 5563, 5556, 5555, 5562
3009, 5536, 5529, 5528, 5535, 5557, 5550, 5549, 5556
3010, 5543, 5536, 5535, 5542, 5564, 5557, 5556, 5563
3011, 5537, 5530, 5529, 5536, 5558, 5551, 5550, 5557
3012, 5544, 5537, 5536, 5543, 5565, 5558, 5557, 5564
3013, 5553, 5546, 5545, 5552, 5574, 5567, 5566, 5573
3014, 5560, 5553, 5552, 5559, 5581, 5574, 5573, 5580
3015, 5554, 5547, 5546, 5553, 5575, 5568, 5567, 5574
3016, 5561, 5554, 5553, 5560, 5582, 5575, 5574, 5581
3017, 5555, 5548, 5547, 5554, 5576, 5569, 5568, 5575
3018, 5562, 5555, 5554, 5561, 5583, 5576, 5575, 5582
3019, 5556, 5549, 5548, 5555, 5577, 5570, 5569, 5576
3020, 5563, 5556, 5555, 5562, 5584, 5577, 5576, 5583
3021, 5557, 5550, 5549, 5556, 5578, 5571, 5570, 5577
3022, 5564, 5557, 5556, 5563, 5585, 5578, 5577, 5584
3023, 5558, 5551, 5550, 5557, 5579, 5572, 5571, 5578
3024, 5565, 5558, 5557, 5564, 5586, 5579, 5578, 5585
3025, 5595, 5588, 5587, 5594, 5616, 5609, 5608, 5615
3026, 5602, 5595, 5594, 5601, 5623, 5616, 5615, 5622
3027, 5596, 5589, 5588, 5595, 5617, 5610, 5609, 5616
3028, 5603, 5596, 5595, 5602, 5624, 5617, 5616, 5623
3029, 5597, 5590, 5589, 5596, 5618, 5611, 5610, 5617
3030, 5604, 5597, 5596, 5603, 5625, 5618, 5617, 5624
3031, 5598, 5591, 5590, 5597, 5619, 5612, 5611, 5618
3032, 5605, 5598, 5597, 5604, 5626, 5619, 5618, 5625
3033, 5599, 5592, 5591, 5598, 5620, 5613, 5612, 5619
3034, 5606, 5599, 5598, 5605, 5627, 5620, 5619, 5626
3035, 5600, 5593, 5592, 5599, 5621, 5614, 5613, 5620
3036, 5607, 5600, 5599, 5606, 5628, 5621, 5620, 5627
3037, 5616, 5609, 5608, 5615, 5637, 5630, 5629, 5636
3038, 5623, 5616, 5615, 5622, 5644, 5637, 5636, 5643
3039, 5617, 5610, 5609, 5616, 5638, 5631, 5630, 5637
3040, 5624, 5617, 5616, 5623, 5645, 5638, 5637, 5644
3041, 5618, 5611, 5610, 5617, 5639, 5632, 5631, 5638
3042, 5625, 5618, 5617, 5624, 5646, 5639, 5638, 5645
3043, 5619, 5612, 5611, 5618, 5640, 5633, 5632, 5639
3044, 5626, 5619, 5618, 5625, 5647, 5640, 5639, 5646
3045, 5620, 5613, 5612, 5619, 5641, 5634, 5633, 5640
3046, 5627, 5620, 5619, 5626, 5648, 5641, 5640, 5647
3047, 5621, 5614, 5613, 5620, 5642, 5635, 5634, 5641
3048, 5628, 5621, 5620, 5627, 5649, 5642, 5641, 5648
3049, 5637, 5630, 5629, 5636, 5658, 5651, 5650, 5657
3050, 5644, 5637, 5636, 5643, 5665, 5658, 5657, 5664
3051, 5638, 5631, 5630, 5637, 5659, 5652, 5651, 5658
3052, 5645, 5638, 5637, 5644, 5666, 5659, 5658, 5665
3053, 5639, 5632, 5631, 5638, 5660, 5653, 5652, 5659
3054, 5646, 5639, 5638, 5645, 5667, 5660, 5659, 5666
3055, 5640, 5633, 5632, 5639, 5661, 5654, 5653, 5660
3056, 5647, 5640, 5639, 5646, 5668, 5661, 5660, 5667
3057, 5641, 5634, 5633, 5640, 5662, 5655, 5654, 5661
3058, 5648, 5641, 5640, 5647, 5669, 5662, 5661, 5668
3059, 5642, 5635, 5634, 5641, 5663, 5656, 5655, 5662
3060, 5649, 5642, 5641, 5648, 5670, 5663, 5662, 5669
3061, 5658, 5651, 5650, 5657, 5679, 5672, 5671, 5678
3062, 5665, 5658, 5657, 5664, 5686, 5679, 5678, 5685
3063, 5659, 5652, 5651, 5658, 5680, 5673, 5672, 5679
3064, 5666, 5659, 5658, 5665, 5687, 5680, 5679, 5686
3065, 5660, 5653, 5652, 5659, 5681, 5674, 5673, 5680
3066, 5667, 5660, 5659, 5666, 5688, 5681, 5680, 5687
3067, 5661, 5654, 5653, 5660, 5682, 5675, 5674, 5681
3068, 5668, 5661, 5660, 5667, 5689, 5682, 5681, 5688
3069, 5662, 5655, 5654, 5661, 5683, 5676, 5675, 5682
3070, 5669, 5662, 5661, 5668, 5690, 5683, 5682, 5689
3071, 5663, 5656, 5655, 5662, 5684, 5677, 5676, 5683
3072, 5670, 5663, 5662, 5669, 5691, 5684, 5683, 5690
3073, 5679, 5672, 5671, 5678, 5700, 5693, 5692, 5699
3074, 5686, 5679, 5678, 5685, 5707, 5700, 5699, 5706
3075, 5680, 5673, 5672, 5679, 5701, 5694, 5693, 5700
3076, 5687, 5680, 5679, 5686, 5708, 5701, 5700, 5707
3077, 5681, 5674, 5673, 5680, 5702, 5695, 5694, 5701
3078, 5688, 5681, 5680, 5687, 5709, 5702, 5701, 5708
3079, 5682, 5675, 5674, 5681, 5703, 5696, 5695, 5702
3080, 5689, 5682, 5681, 5688, 5710, 5703, 5702, 5709
3081, 5683, 5676, 5675, 5682, 5704, 5697, 5696, 5703
3082, 5690, 5683, 5682, 5689, 5711, 5704, 5703, 5710
3083, 5684, 5677, 5676, 5683, 5705, 5698, 5697, 5704
3084, 5691, 5684, 5683, 5690, 5712, 5705, 5704, 5711
3085, 5700, 5693, 5692, 5699, 5721, 5714, 5713, 5720
3086, 5707, 5700, 5699, 5706, 5728, 5721, 5720, 5727
3087, 5701, 5694, 5693, 5700, 5722, 5715, 5714, 5721
3088, 5708, 5701, 5700, 5707, 5729, 5722, 5721, 5728
3089, 5702, 5695, 5694, 5701, 5723, 5716, 5715, 5722
3090, 5709, 5702, 5701, 5708, 5730, 5723, 5722, 5729
3091, 5703, 5696, 5695, 5702, 5724, 5717, 5716, 5723
3092, 5710, 5703, 5702, 5709, 5731, 5724, 5723, 5730
3093, 5704, 5697, 5696, 5703, 5725, 5718, 5717, 5724
3094, 5711, 5704, 5703, 5710, 5732, 5725, 5724, 5731
3095, 5705, 5698, 5697, 5704, 5726, 5719, 5718, 5725
3096, 5712, 5705, 5704, 5711, 5733, 5726, 5725, 5732
3097, 5721, 5714, 5713, 5720, 5742, 5735, 5734, 5741
3098, 5728, 5721, 5720, 5727, 5749, 5742, 5741, 5748
3099, 5722, 5715, 5714, 5721, 5743, 5736, 5735, 5742
3100, 5729, 5722, 5721, 5728, 5750, 5743, 5742, 5749
3101, 5723, 5716, 5715, 5722, 5744, 5737, 5736, 5743
3102, 5730, 5723, 5722, 5729, 5751, 5744, 5743, 5750
3103, 5724, 5717, 5716, 5723, 5745, 5738, 5737, 5744
3104, 5731, 5724, 5723, 5730, 5752, 5745, 5744, 5751
3105, 5725, 5718, 5717, 5724, 5746, 5739, 5738, 5745
3106, 5732, 5725, 5724, 5731, 5753, 5746, 5745, 5752
3107, 5726, 5719, 5718, 5725, 5747, 5740, 5739, 5746
3108, 5733, 5726, 5725, 5732, 5754, 5747, 5746, 5753
3109, 5742, 5735, 5734, 5741, 5763, 5756, 5755, 5762
3110, 5749, 5742, 5741, 5748, 5770, 5763, 5762, 5769
3111, 5743, 5736, 5735, 5742, 5764, 5757, 5756, 5763
3112, 5750, 5743, 5742, 5749, 5771, 5764, 5763, 5770
3113, 5744, 5737, 5736, 5743, 5765, 5758, 5757, 5764
3114, 5751, 5744, 5743, 5750, 5772, 5765, 5764, 5771
3115, 5745, 5738, 5737, 5744, 5766, 5759, 5758, 5765
3116, 5752, 5745, 5744, 5751, 5773, 5766, 5765, 5772
3117, 5746, 5739, 5738, 5745, 5767, 5760, 5759, 5766
3118, 5753, 5746, 5745, 5752, 5774, 5767, 5766, 5773
3119, 5747, 5740, 5739, 5746, 5768, 5761, 5760, 5767
3120, 5754, 5747, 5746, 5753, 5775, 5768, 5767, 5774
3121, 5763, 5756, 5755, 5762, 5784, 5777, 5776, 5783
3122, 5770, 5763, 5762, 5769, 5791, 5784, 5783, 5790
3123, 5764, 5757, 5756, 5763, 5785, 5778, 5777, 5784
3124, 5771, 5764, 5763, 5770, 5792, 5785, 5784, 5791
3125, 5765, 5758, 5757, 5764, 5786, 5779, 5778, 5785
3126, 5772, 5765, 5764, 5771, 5793, 5786, 5785, 5792
3127, 5766, 5759, 5758, 5765, 5787, 5780, 5779, 5786
3128, 5773, 5766, 5765, 5772, 5794, 5787, 5786, 5793
3129, 5767, 5760, 5759, 5766, 5788, 5781, 5780, 5787
3130, 5774, 5767, 5766, 5773, 5795, 5788, 5787, 5794
3131, 5768, 5761, 5760, 5767, 5789, 5782, 5781, 5788
3132, 5775, 5768, 5767, 5774, 5796, 5789, 5788, 5795
3133, 5784, 5777, 5776, 5783, 5805, 5798, 5797, 5804
3134, 5791, 5784, 5783, 5790, 5812, 5805, 5804, 5811
3135, 5785, 5778, 5777, 5784, 5806, 5799, 5798, 5805
3136, 5792, 5785, 5784, 5791, 5813, 5806, 5805, 5812
3137, 5786, 5779, 5778, 5785, 5807, 5800, 5799, 5806
3138, 5793, 5786, 5785, 5792, 5814, 5807, 5806, 5813
3139, 5787, 5780, 5779, 5786, 5808, 5801, 5800, 5807
3140, 5794, 5787, 5786, 5793, 5815, 5808, 5807, 5814
3141, 5788, 5781, 5780, 5787, 5809, 5802, 5801, 5808
3142, 5795, 5788, 5787, 5794, 5816, 5809, 5808, 5815
3143, 5789, 5782, 5781, 5788, 5810, 5803, 5802, 5809
3144, 5796, 5789, 5788, 5795, 5817, 5810, 5809, 5816
3145, 5805, 5798, 5797, 5804, 5826, 5819, 5818, 5825
3146, 5812, 5805, 5804, 5811, 5833, 5826, 5825, 5832
3147, 5806, 5799, 5798, 5805, 5827, 5820, 5819, 5826
3148, 5813, 5806, 5805, 5812, 5834, 5827, 5826, 5833
3149, 5807, 5800, 5799, 5806, 5828, 5821, 5820, 5827
3150, 5814, 5807, 5806, 5813, 5835, 5828, 5827, 5834
3151, 5808, 5801, 5800, 5807, 5829, 5822, 5821, 5828
3152, 5815, 5808, 5807, 5814, 5836, 5829, 5828, 5835
3153, 5809, 5802, 5801, 5808, 5830, 5823, 5822, 5829
3154, 5816, 5809, 5808, 5815, 5837, 5830, 5829, 5836
3155, 5810, 5803, 5802, 5809, 5831, 5824, 5823, 5830
3156, 5817, 5810, 5809, 5816, 5838, 5831, 5830, 5837
3157, 5826, 5819, 5818, 5825, 5847, 5840, 5839, 5846
3158, 5833, 5826, 5825, 5832, 5854, 5847, 5846, 5853
3159, 5827, 5820, 5819, 5826, 5848, 5841, 5840, 5847
3160, 5834, 5827, 5826, 5833, 5855, 5848, 5847, 5854
3161, 5828, 5821, 5820, 5827, 5849, 5842, 5841, 5848
3162, 5835, 5828, 5827, 5834, 5856, 5849, 5848, 5855
3163, 5829, 5822, 5821, 5828, 5850, 5843, 5842, 5849
3164, 5836, 5829, 5828, 5835, 5857, 5850, 5849, 5856
3165, 5830, 5823, 5822, 5829, 5851, 5844, 5843, 5850
3166, 5837, 5830, 5829, 5836, 5858, 5851, 5850, 5857
3167, 5831, 5824, 5823, 5830, 5852, 5845, 5844, 5851
3168, 5838, 5831, 5830, 5837, 5859, 5852, 5851, 5858
3169, 5847, 5840, 5839, 5846, 5868, 5861, 5860, 5867
3170, 5854, 5847, 5846, 5853, 5875, 5868, 5867, 5874
3171, 5848, 5841, 5840, 5847, 5869, 5862, 5861, 5868
3172, 5855, 5848, 5847, 5854, 5876, 5869, 5868, 5875
3173, 5849, 5842, 5841, 5848, 5870, 5863, 5862, 5869
3174, 5856, 5849, 5848, 5855, 5877, 5870, 5869, 5876
3175, 5850, 5843, 5842, 5849, 5871, 5864, 5863, 5870
3176, 5857, 5850, 5849, 5856, 5878, 5871, 5870, 5877
3177, 5851, 5844, 5843, 5850, 5872, 5865, 5864, 5871
3178, 5858, 5851, 5850, 5857, 5879, 5872, 5871, 5878
3179, 5852, 5845, 5844, 5851, 5873, 5866, 5865, 5872
3180, 5859, 5852, 5851, 5858, 5880, 5873, 5872, 5879
3181, 5868, 5861, 5860, 5867, 5889, 5882, 5881, 5888
3182, 5875, 5868, 5867, 5874, 5896, 5889, 5888, 5895
3183, 5869, 5862, 5861, 5868, 5890, 5883, 5882, 5889
3184, 5876, 5869, 5868, 5875, 5897, 5890, 5889, 5896
3185, 5870, 5863, 5862, 5869, 5891, 5884, 5883, 5890
3186, 5877, 5870, 5869, 5876, 5898, 5891, 5890, 5897
3187, 5871, 5864, 5863, 5870, 5892, 5885, 5884, 5891
3188, 5878, 5871, 5870, 5877, 5899, 5892, 5891, 5898
3189, 5872, 5865, 5864, 5871, 5893, 5886, 5885, 5892
3190, 5879, 5872, 5871, 5878, 5900, 5893, 5892, 5899
3191, 5873, 5866, 5865, 5872, 5894, 5887, 5886, 5893
3192, 5880, 5873, 5872, 5879, 5901, 5894, 5893, 5900
3193, 5889, 5882, 5881, 5888, 5910, 5903, 5902, 5909
3194, 5896, 5889, 5888, 5895, 5917, 5910, 5909, 5916
3195, 5890, 5883, 5882, 5889, 5911, 5904, 5903, 5910
3196, 5897, 5890, 5889, 5896, 5918, 5911, 5910, 5917
3197, 5891, 5884, 5883, 5890, 5912, 5905, 5904, 5911
3198, 5898, 5891, 5890, 5897, 5919, 5912, 5911, 5918
3199, 5892, 5885, 5884, 5891, 5913, 5906, 5905, 5912
3200, 5899, 5892, 5891, 5898, 5920, 5913, 5912, 5919
3201, 5893, 5886, 5885, 5892, 5914, 5907, 5906, 5913
3202, 5900, 5893, 5892, 5899, 5921, 5914, 5913, 5920
3203, 5894, 5887, 5886, 5893, 5915, 5908, 5907, 5914
3204, 5901, 5894, 5893, 5900, 5922, 5915, 5914, 5921
3205, 5910, 5903, 5902, 5909, 5931, 5924, 5923, 5930
3206, 5917, 5910, 5909, 5916, 5938, 5931, 5930, 5937
3207, 5911, 5904, 5903, 5910, 5932, 5925, 5924, 5931
3208, 5918, 5911, 5910, 5917, 5939, 5932, 5931, 5938
3209, 5912, 5905, 5904, 5911, 5933, 5926, 5925, 5932
3210, 5919, 5912, 5911, 5918, 5940, 5933, 5932, 5939
3211, 5913, 5906, 5905, 5912, 5934, 5927, 5926, 5933
3212, 5920, 5913, 5912, 5919, 5941, 5934, 5933, 5940
3213, 5914, 5907, 5906, 5913, 5935, 5928, 5927, 5934
3214, 5921, 5914, 5913, 5920, 5942, 5935, 5934, 5941
3215, 5915, 5908, 5907, 5914, 5936, 5929, 5928, 5935
3216, 5922, 5915, 5914, 5921, 5943, 5936, 5935, 5942
3217, 5931, 5924, 5923, 5930, 5952, 5945, 5944, 5951
3218, 5938, 5931, 5930, 5937, 5959, 5952, 5951, 5958
3219, 5932, 5925, 5924, 5931, 5953, 5946, 5945, 5952
3220, 5939, 5932, 5931, 5938, 5960, 5953, 5952, 5959
3221, 5933, 5926, 5925, 5932, 5954, 5947, 5946, 5953
3222, 5940, 5933, 5932, 5939, 5961, 5954, 5953, 5960
3223, 5934, 5927, 5926, 5933, 5955, 5948, 5947, 5954
3224, 5941, 5934, 5933, 5940, 5962, 5955, 5954, 5961
3225, 5935, 5928, 5927, 5934, 5956, 5949, 5948, 5955
3226, 5942, 5935, 5934, 5941, 5963, 5956, 5955, 5962
3227, 5936, 5929, 5928, 5935, 5957, 5950, 5949, 5956
3228, 5943, 5936, 5935, 5942, 5964, 5957, 5956, 5963
3229, 5952, 5945, 5944, 5951, 5973, 5966, 5965, 5972
3230, 5959, 5952, 5951, 5958, 5980, 5973, 5972, 5979
3231, 5953, 5946, 5945, 5952, 5974, 5967, 5966, 5973
3232, 5960, 5953, 5952, 5959, 5981, 5974, 5973, 5980
3233, 5954, 5947, 5946, 5953, 5975, 5968, 5967, 5974
3234, 5961, 5954, 5953, 5960, 5982, 5975, 5974, 5981
3235, 5955, 5948, 5947, 5954, 5976, 5969, 5968, 5975
3236, 5962, 5955, 5954, 5961, 5983, 5976, 5975, 5982
3237, 5956, 5949, 5948, 5955, 5977, 5970, 5969, 5976
3238, 5963, 5956, 5955, 5962, 5984, 5977, 5976, 5983
3239, 5957, 5950, 5949, 5956, 5978, 5971, 5970, 5977
3240, 5964, 5957, 5956, 5963, 5985, 5978, 5977, 5984
3241, 5994, 5987, 5986, 5993, 6015, 6008, 6007, 6014
3242, 6001, 5994, 5993, 6000, 6022, 6015, 6014, 6021
3243, 5995, 5988, 5987, 5994, 6016, 6009, 6008, 6015
3244, 6002, 5995, 5994, 6001, 6023, 6016, 6015, 6022
3245, 5996, 5989, 5988, 5995, 6017, 6010, 6009, 6016
3246, 6003, 5996, 5995, 6002, 6024, 6017, 6016, 6023
3247, 5997, 5990, 5989, 5996, 6018, 6011, 6010, 6017
3248, 6004, 5997, 5996, 6003, 6025, 6018, 6017, 6024
3249, 5998, 5991, 5990, 5997, 6019, 6012, 6011, 6018
3250, 6005, 5998, 5997, 6004, 6026, 6019, 6018, 6025
3251, 5999, 5992, 5991, 5998, 6020, 6013, 6012, 6019
3252, 6006, 5999, 5998, 6005, 6027, 6020, 6019, 6026
3253, 6015, 6008, 6007, 6014, 6036, 6029, 6028, 6035
3254, 6022, 6015, 6014, 6021, 6043, 6036, 6035, 6042
3255, 6016, 6009, 6008, 6015, 6037, 6030, 6029, 6036
3256, 6023, 6016, 6015, 6022, 6044, 6037, 6036, 6043
3257, 6017, 6010, 6009, 6016, 6038, 6031, 6030, 6037
3258, 6024, 6017, 6016, 6023, 6045, 6038, 6037, 6044
3259, 6018, 6011, 6010, 6017, 6039, 6032, 6031, 6038
3260, 6025, 6018, 6017, 6024, 6046, 6039, 6038, 6045
3261, 6019, 6012, 6011, 6018, 6040, 6033, 6032, 6039
3262, 6026, 6019, 6018, 6025, 6047, 6040, 6039, 6046
3263, 6020, 6013, 6012, 6019, 6041, 6034, 6033, 6040
3264, 6027, 6020, 6019, 6026, 6048, 6041, 6040, 6047
3265, 6036, 6029, 6028, 6035, 6057, 6050, 6049, 6056
3266, 6043, 6036, 6035, 6042, 6064, 6057, 6056, 6063
3267, 6037, 6030, 6029, 6036, 6058, 6051, 6050, 6057
3268, 6044, 6037, 6036, 6043, 6065, 6058, 6057, 6064
3269, 6038, 6031, 6030, 6037, 6059, 6052, 6051, 6058
3270, 6045, 6038, 6037, 6044, 6066, 6059, 6058, 6065
3271, 6039, 6032, 6031, 6038, 6060, 6053, 6052, 6059
3272, 6046, 6039, 6038, 6045, 6067, 6060, 6059, 6066
3273, 6040, 6033, 6032, 6039, 6061, 6054, 6053, 6060
3274, 6047, 6040, 6039, 6046, 6068, 6061, 6060, 6067
3275, 6041, 6034, 6033, 6040, 6062, 6055, 6054, 6061
3276, 6048, 6041, 6040, 6047, 6069, 6062, 6061, 6068
3277, 6057, 6050, 6049, 6056, 6078, 6071, 6070, 6077
3278, 6064, 6057, 6056, 6063, 6085, 6078, 6077, 6084
3279, 6058, 6051, 6050, 6057, 6079, 6072, 6071, 6078
3280, 6065, 6058, 6057, 6064, 6086, 6079, 6078, 6085
3281, 6059, 6052, 6051, 6058, 6080, 6073, 6072, 6079
3282, 6066, 6059, 6058, 6065, 6087, 6080, 6079, 6086
3283, 6060, 6053, 6052, 6059, 6081, 6074, 6073, 6080
3284, 6067, 6060, 6059, 6066, 6088, 6081, 6080, 6087
3285, 6061, 6054, 6053, 6060, 6082, 6075, 6074, 6081
3286, 6068, 6061, 6060, 6067, 6089, 6082, 6081, 6088
3287, 6062, 6055, 6054, 6061, 6083, 6076, 6075, 6082
3288, 6069, 6062, 6061, 6068, 6090, 6083, 6082, 6089
3289, 6078, 6071, 6070, 6077, 6099, 6092, 6091, 6098
3290, 6085, 6078, 6077, 6084, 6106, 6099, 6098, 6105
3291, 6079, 6072, 6071, 6078, 6100, 6093, 6092, 6099
3292, 6086, 6079, 6078, 6085, 6107, 6100, 6099, 6106
3293, 6080, 6073, 6072, 6079, 6101, 6094, 6093, 6100
3294, 6087, 6080, 6079, 6086, 6108, 6101, 6100, 6107
3295, 6081, 6074, 6073, 6080, 6102, 6095, 6094, 6101
3296, 6088, 6081, 6080, 6087, 6109, 6102, 6101, 6108
3297, 6082, 6075, 6074, 6081, 6103, 6096, 6095, 6102
3298, 6089, 6082, 6081, 6088, 6110, 6103, 6102, 6109
3299, 6083, 6076, 6075, 6082, 6104, 6097, 6096, 6103
3300, 6090, 6083, 6082, 6089, 6111, 6104, 6103, 6110
3301, 6099, 6092, 6091, 6098, 6120, 6113, 6112, 6119
3302, 6106, 6099, 6098, 6105, 6127, 6120, 6119, 6126
3303, 6100, 6093, 6092, 6099, 6121, 6114, 6113, 6120
3304, 6107, 6100, 6099, 6106, 6128, 6121, 6120, 6127
3305, 6101, 6094, 6093, 6100, 6122, 6115, 6114, 6121
3306, 6108, 6101, 6100, 6107, 6129, 6122, 6121, 6128
3307, 6102, 6095, 6094, 6101, 6123, 6116, 6115, 6122
3308, 6109, 6102, 6101, 6108, 6130, 6123, 6122, 6129
3309, 6103, 6096, 6095, 6102, 6124, 6117, 6116, 6123
3310, 6110, 6103, 6102, 6109, 6131, 6124, 6123, 6130
3311, 6104, 6097, 6096, 6103, 6125, 6118, 6117, 6124
3312, 6111, 6104, 6103, 6110, 6132, 6125, 6124, 6131
3313, 6120, 6113, 6112, 6119, 6141, 6134, 6133, 6140
3314, 6127, 6120, 6119, 6126, 6148, 6141, 6140, 6147
3315, 6121, 6114, 6113, 6120, 6142, 6135, 6134, 6141
3316, 6128, 6121, 6120, 6127, 6149, 6142, 6141, 6148
3317, 6122, 6115, 6114, 6121, 6143, 6136, 6135, 6142
3318, 6129, 6122, 6121, 6128, 6150, 6143, 6142, 6149
3319, 6123, 6116, 6115, 6122, 6144, 6137, 6136, 6143
3320, 6130, 6123, 6122, 6129, 6151, 6144, 6143, 6150
3321, 6124, 6117, 6116, 6123, 6145, 6138, 6137, 6144
3322, 6131, 6124, 6123, 6130, 6152, 6145, 6144, 6151
3323, 6125, 6118, 6117, 6124, 6146, 6139, 6138, 6145
3324, 6132, 6125, 6124, 6131, 6153, 6146, 6145, 6152
3325, 6141, 6134, 6133, 6140, 6162, 6155, 6154, 6161
3326, 6148, 6141, 6140, 6147, 6169, 6162, 6161, 6168
3327, 6142, 6135, 6134, 6141, 6163, 6156, 6155, 6162
3328, 6149, 6142, 6141, 6148, 6170, 6163, 6162, 6169
3329, 6143, 6136, 6135, 6142, 6164, 6157, 6156, 6163
3330, 6150, 6143, 6142, 6149, 6171, 6164, 6163, 6170
3331, 6144, 6137, 6136, 6143, 6165, 6158, 6157, 6164
3332, 6151, 6144, 6143, 6150, 6172, 6165, 6164, 6171
3333, 6145, 6138, 6137, 6144, 6166, 6159, 6158, 6165
3334, 6152, 6145, 6144, 6151, 6173, 6166, 6165, 6172
3335, 6146, 6139, 6138, 6145, 6167, 6160, 6159, 6166
3336, 6153, 6146, 6145, 6152, 6174, 6167, 6166, 6173
3337, 6162, 6155, 6154, 6161, 6183, 6176, 6175, 6182
3338, 6169, 6162, 6161, 6168, 6190, 6183, 6182, 6189
3339, 6163, 6156, 6155, 6162, 6184, 6177, 6176, 6183
3340, 6170, 6163, 6162, 6169, 6191, 6184, 6183, 6190
3341, 6164, 6157, 6156, 6163, 6185, 6178, 6177, 6184
3342, 6171, 6164, 6163, 6170, 6192, 6185, 6184, 6191
3343, 6165, 6158, 6157, 6164, 6186, 6179, 6178, 6185
3344, 6172, 6165, 6164, 6171, 6193, 6186, 6185, 6192
3345, 6166, 6159, 6158, 6165, 6187, 6180, 6179, 6186
3346, 6173, 6166, 6165, 6172, 6194, 6187, 6186, 6193
3347, 6167, 6160, 6159, 6166, 6188, 6181, 6180, 6187
3348, 6174, 6167, 6166, 6173, 6195, 6188, 6187, 6194
3349, 6183, 6176, 6175, 6182, 6204, 6197, 6196, 6203
3350, 6190, 6183, 6182, 6189, 6211, 6204, 6203, 6210
3351, 6184, 6177, 6176, 6183, 6205, 6198, 6197, 6204
3352, 6191, 6184, 6183, 6190, 6212, 6205, 6204, 6211
3353, 6185, 6178, 6177, 6184, 6206, 6199, 6198, 6205
3354, 6192, 6185, 6184, 6191, 6213, 6206, 6205, 6212
3355, 6186, 6179, 6178, 6185, 6207, 6200, 6199, 6206
3356, 6193, 6186, 6185, 6192, 6214, 6207, 6206, 6213
3357, 6187, 6180, 6179, 6186, 6208, 6201, 6200, 6207
3358, 6194, 6187, 6186, 6193, 6215, 6208, 6207, 6214
3359, 6188, 6181, 6180, 6187, 6209, 6202, 6201, 6208
3360, 6195, 6188, 6187, 6194, 6216, 6209, 6208, 6215
3361, 6204, 6197, 6196, 6203, 6225, 6218, 6217, 6224
3362, 6211, 6204, 6203, 6210, 6232, 6225, 6224, 6231
3363, 6205, 6198, 6197, 6204, 6226, 6219, 6218, 6225
3364, 6212, 6205, 6204, 6211, 6233, 6226, 6225, 6232
3365, 6206, 6199, 6198, 6205, 6227, 6220, 6219, 6226
3366, 6213, 6206, 6205, 6212, 6234, 6227, 6226, 6233
3367, 6207, 6200, 6199, 6206, 6228, 6221, 6220, 6227
3368, 6214, 6207, 6206, 6213, 6235, 6228, 6227, 6234
3369, 6208, 6201, 6200, 6207, 6229, 6222, 6221, 6228
3370, 6215, 6208, 6207, 6214, 6236, 6229, 6228, 6235
3371, 6209, 6202, 6201, 6208, 6230, 6223, 6222, 6229
3372, 6216, 6209, 6208, 6215, 6237, 6230, 6229, 6236
3373, 6225, 6218, 6217, 6224, 6246, 6239, 6238, 6245
3374, 6232, 6225, 6224, 6231, 6253, 6246, 6245, 6252
3375, 6226, 6219, 6218, 6225, 6247, 6240, 6239, 6246
3376, 6233, 6226, 6225, 6232, 6254, 6247, 6246, 6253
3377, 6227, 6220, 6219, 6226, 6248, 6241, 6240, 6247
3378, 6234, 6227, 6226, 6233, 6255, 6248, 6247, 6254
3379, 6228, 6221, 6220, 6227, 6249, 6242, 6241, 6248
3380, 6235, 6228, 6227, 6234, 6256, 6249, 6248, 6255
3381, 6229, 6222, 6221, 6228, 6250, 6243, 6242, 6249
3382, 6236, 6229, 6228, 6235, 6257, 6250, 6249, 6256
3383, 6230, 6223, 6222, 6229, 6251, 6244, 6243, 6250
3384, 6237, 6230, 6229, 6236, 6258, 6251, 6250, 6257
3385, 6246, 6239, 6238, 6245, 6267, 6260, 6259, 6266
3386, 6253, 6246, 6245, 6252, 6274, 6267, 6266, 6273
3387, 6247, 6240, 6239, 6246, 6268, 6261, 6260, 6267
3388, 6254, 6247, 6246, 6253, 6275, 6268, 6267, 6274
3389, 6248, 6241, 6240, 6247, 6269, 6262, 6261, 6268
3390, 6255, 6248, 6247, 6254, 6276, 6269, 6268, 6275
3391, 6249, 6242, 6241, 6248, 6270, 6263, 6262, 6269
3392, 6256, 6249, 6248, 6255, 6277, 6270, 6269, 6276
3393, 6250, 6243, 6242, 6249, 6271, 6264, 6263, 6270
3394, 6257, 6250, 6249, 6256, 6278, 6271, 6270, 6277
3395, 6251, 6244, 6243, 6250, 6272, 6265, 6264, 6271
3396, 6258, 6251, 6250, 6257, 6279, 6272, 6271, 6278
3397, 6267, 6260, 6259, 6266, 6288, 6281, 6280, 6287
3398, 6274, 6267, 6266, 6273, 6295, 6288, 6287, 6294
3399, 6268, 6261, 6260, 6267, 6289, 6282, 6281, 6288
3400, 6275, 6268, 6267, 6274, 6296, 6289, 6288, 6295
3401, 6269, 6262, 6261, 6268, 6290, 6283, 6282, 6289
3402, 6276, 6269, 6268, 6275, 6297, 6290, 6289, 6296
3403, 6270, 6263, 6262, 6269, 6291, 6284, 6283, 6290
3404, 6277, 6270, 6269, 6276, 6298, 6291, 6290, 6297
3405, 6271, 6264, 6263, 6270, 6292, 6285, 6284, 6291
3406, 6278, 6271, 6270, 6277, 6299, 6292, 6291, 6298
3407, 6272, 6265, 6264, 6271, 6293, 6286, 6285, 6292
3408, 6279, 6272, 6271, 6278, 6300, 6293, 6292, 6299
3409, 6288, 6281, 6280, 6287, 6309, 6302, 6301, 6308
3410, 6295, 6288, 6287, 6294, 6316, 6309, 6308, 6315
3411, 6289, 6282, 6281, 6288, 6310, 6303, 6302, 6309
3412, 6296, 6289, 6288, 6295, 6317, 6310, 6309, 6316
3413, 6290, 6283, 6282, 6289, 6311, 6304, 6303, 6310
3414, 6297, 6290, 6289, 6296, 6318, 6311, 6310, 6317
3415, 6291, 6284, 6283, 6290, 6312, 6305, 6304, 6311
3416, 6298, 6291, 6290, 6297, 6319, 6312, 6311, 6318
3417, 6292, 6285, 6284, 6291, 6313, 6306, 6305, 6312
3418, 6299, 6292, 6291, 6298, 6320, 6313, 6312, 6319
3419, 6293, 6286, 6285, 6292, 6314, 6307, 6306, 6313
3420, 6300, 6293, 6292, 6299, 6321, 6314, 6313, 6320
3421, 6309, 6302, 6301, 6308, 6330, 6323, 6322, 6329
3422, 6316, 6309, 6308, 6315, 6337, 6330, 6329, 6336
3423, 6310, 6303, 6302, 6309, 6331, 6324, 6323, 6330
3424, 6317, 6310, 6309, 6316, 6338, 6331, 6330, 6337
3425, 6311, 6304, 6303, 6310, 6332, 6325, 6324, 6331
3426, 6318, 6311, 6310, 6317, 6339, 6332, 6331, 6338
3427, 6312, 6305, 6304, 6311, 6333, 6326, 6325, 6332
3428, 6319, 6312, 6311, 6318, 6340, 6333, 6332, 6339
3429, 6313, 6306, 6305, 6312, 6334, 6327, 6326, 6333
3430, 6320, 6313, 6312, 6319, 6341, 6334, 6333, 6340
3431, 6314, 6307, 6306, 6313, 6335, 6328, 6327, 6334
3432, 6321, 6314, 6313, 6320, 6342, 6335, 6334, 6341
3433, 6330, 6323, 6322, 6329, 6351, 6344, 6343, 6350
3434, 6337, 6330, 6329, 6336, 6358, 6351, 6350, 6357
3435, 6331, 6324, 6323, 6330, 6352, 6345, 6344, 6351
3436, 6338, 6331, 6330, 6337, 6359, 6352, 6351, 6358
3437, 6332, 6325, 6324, 6331, 6353, 6346, 6345, 6352
3438, 6339, 6332, 6331, 6338, 6360, 6353, 6352, 6359
3439, 6333, 6326, 6325, 6332, 6354, 6347, 6346, 6353
3440, 6340, 6333, 6332, 6339, 6361, 6354, 6353, 6360
3441, 6334, 6327, 6326, 6333, 6355, 6348, 6347, 6354
3442, 6341, 6334, 6333, 6340, 6362, 6355, 6354, 6361
3443, 6335, 6328, 6327, 6334, 6356, 6349, 6348, 6355
3444, 6342, 6335, 6334, 6341, 6363, 6356, 6355, 6362
3445, 6351, 6344, 6343, 6350, 6372, 6365, 6364, 6371
3446, 6358, 6351, 6350, 6357, 6379, 6372, 6371, 6378
3447, 6352, 6345, 6344, 6351, 6373, 6366, 6365, 6372
3448, 6359, 6352, 6351, 6358, 6380, 6373, 6372, 6379
3449, 6353, 6346, 6345, 6352, 6374, 6367, 6366, 6373
3450, 6360, 6353, 6352, 6359, 6381, 6374, 6373, 6380
3451, 6354, 6347, 6346, 6353, 6375, 6368, 6367, 6374
3452, 6361, 6354, 6353, 6360, 6382, 6375, 6374, 6381
3453, 6355, 6348, 6347, 6354, 6376, 6369, 6368, 6375
3454, 6362, 6355, 6354, 6361, 6383, 6376, 6375, 6382
3455, 6356, 6349, 6348, 6355, 6377, 6370, 6369, 6376
3456, 6363, 6356, 6355, 6362, 6384, 6377, 6376, 6383
3457, 6393, 6386, 6385, 6392, 6414, 6407, 6406, 6413
3458, 6400, 6393, 6392, 6399, 6421, 6414, 6413, 6420
3459, 6394, 6387, 6386, 6393, 6415, 6408, 6407, 6414
3460, 6401, 6394, 6393, 6400, 6422, 6415, 6414, 6421
3461, 6395, 6388, 6387, 6394, 6416, 6409, 6408, 6415
3462, 6402, 6395, 6394, 6401, 6423, 6416, 6415, 6422
3463, 6396, 6389, 6388, 6395, 6417, 6410, 6409, 6416
3464, 6403, 6396, 6395, 6402, 6424, 6417, 6416, 6423
3465, 6397, 6390, 6389, 6396, 6418, 6411, 6410, 6417
3466, 6404, 6397, 6396, 6403, 6425, 6418, 6417, 6424
3467, 6398, 6391, 6390, 6397, 6419, 6412, 6411, 6418
3468, 6405, 6398, 6397, 6404, 6426, 6419, 6418, 6425
3469, 6414, 6407, 6406, 6413, 6435, 6428, 6427, 6434
3470, 6421, 6414, 6413, 6420, 6442, 6435, 6434, 6441
3471, 6415, 6408, 6407, 6414, 6436, 6429, 6428, 6435
3472, 6422, 6415, 6414, 6421, 6443, 6436, 6435, 6442
3473, 6416, 6409, 6408, 6415, 6437, 6430, 6429, 6436
3474, 6423, 6416, 6415, 6422, 6444, 6437, 6436, 6443
3475, 6417, 6410, 6409, 6416, 6438, 6431, 6430, 6437
3476, 6424, 6417, 6416, 6423, 6445, 6438, 6437, 6444
3477, 6418, 6411, 6410, 6417, 6439, 6432, 6431, 6438
3478, 6425, 6418, 6417, 6424, 6446, 6439, 6438, 6445
3479, 6419, 6412, 6411, 6418, 6440, 6433, 6432, 6439
3480, 6426, 6419, 6418, 6425, 6447, 6440, 6439, 6446
3481, 6435, 6428, 6427, 6434, 6456, 6449, 6448, 6455
3482, 6442, 6435, 6434, 6441, 6463, 6456, 6455, 6462
3483, 6436, 6429, 6428, 6435, 6457, 6450, 6449, 6456
3484, 6443, 6436, 6435, 6442, 6464, 6457, 6456, 6463
3485, 6437, 6430, 6429, 6436, 6458, 6451, 6450, 6457
3486, 6444, 6437, 6436, 6443, 6465, 6458, 6457, 6464
3487, 6438, 6431, 6430, 6437, 6459, 6452, 6451, 6458
3488, 6445, 6438, 6437, 6444, 6466, 6459, 6458, 6465
3489, 6439, 6432, 6431, 6438, 6460, 6453, 6452, 6459
3490, 6446, 6439, 6438, 6445, 6467, 6460, 6459, 6466
3491, 6440, 6433, 6432, 6439, 6461, 6454, 6453, 6460
3492, 6447, 6440, 6439, 6446, 6468, 6461, 6460, 6467
3493, 6456, 6449, 6448, 6455, 6477, 6470, 6469, 6476
3494, 6463, 6456, 6455, 6462, 6484, 6477, 6476, 6483
3495, 6457, 6450, 6449, 6456, 6478, 6471, 6470, 6477
3496, 6464, 6457, 6456, 6463, 6485, 6478, 6477, 6484
3497, 6458, 6451, 6450, 6457, 6479, 6472, 6471, 6478
3498, 6465, 6458, 6457, 6464, 6486, 6479, 6478, 6485
3499, 6459, 6452, 6451, 6458, 6480, 6473, 6472, 6479
3500, 6466, 6459, 6458, 6465, 6487, 6480, 6479, 6486
3501, 6460, 6453, 6452, 6459, 6481, 6474, 6473, 6480
3502, 6467, 6460, 6459, 6466, 6488, 6481, 6480, 6487
3503, 6461, 6454, 6453, 6460, 6482, 6475, 6474, 6481
3504, 6468, 6461, 6460, 6467, 6489, 6482, 6481, 6488
3505, 6477, 6470, 6469, 6476, 6498, 6491, 6490, 6497
3506, 6484, 6477, 6476, 6483, 6505, 6498, 6497, 6504
3507, 6478, 6471, 6470, 6477, 6499, 6492, 6491, 6498
3508, 6485, 6478, 6477, 6484, 6506, 6499, 6498, 6505
3509, 6479, 6472, 6471, 6478, 6500, 6493, 6492, 6499
3510, 6486, 6479, 6478, 6485, 6507, 6500, 6499, 6506
3511, 6480, 6473, 6472, 6479, 6501, 6494, 6493, 6500
3512, 6487, 6480, 6479, 6486, 6508, 6501, 6500, 6507
3513, 6481, 6474, 6473, 6480, 6502, 6495, 6494, 6501
3514, 6488, 6481, 6480, 6487, 6509, 6502, 6501, 6508
3515, 6482, 6475, 6474, 6481, 6503, 6496, 6495, 6502
3516, 6489, 6482, 6481, 6488, 6510, 6503, 6502, 6509
3517, 6498, 6491, 6490, 6497, 6519, 6512, 6511, 6518
3518, 6505, 6498, 6497, 6504, 6526, 6519, 6518, 6525
3519, 6499, 6492, 6491, 6498, 6520, 6513, 6512, 6519
3520, 6506, 6499, 6498, 6505, 6527, 6520, 6519, 6526
3521, 6500, 6493, 6492, 6499, 6521, 6514, 6513, 6520
3522, 6507, 6500, 6499, 6506, 6528, 6521, 6520, 6527
3523, 6501, 6494, 6493, 6500, 6522, 6515, 6514, 6521
3524, 6508, 6501, 6500, 6507, 6529, 6522, 6521, 6528
3525, 6502, 6495, 6494, 6501, 6523, 6516, 6515, 6522
3526, 6509, 6502, 6501, 6508, 6530, 6523, 6522, 6529
3527, 6503, 6496, 6495, 6502, 6524, 6517, 6516, 6523
3528, 6510, 6503, 6502, 6509, 6531, 6524, 6523, 6530
3529, 6519, 6512, 6511, 6518, 6540, 6533, 6532, 6539
3530, 6526, 6519, 6518, 6525, 6547, 6540, 6539, 6546
3531, 6520, 6513, 6512, 6519, 6541, 6534, 6533, 6540
3532, 6527, 6520, 6519, 6526, 6548, 6541, 6540, 6547
3533, 6521, 6514, 6513, 6520, 6542, 6535, 6534, 6541
3534, 6528, 6521, 6520, 6527, 6549, 6542, 6541, 6548
3535, 6522, 6515, 6514, 6521, 6543, 6536, 6535, 6542
3536, 6529, 6522, 6521, 6528, 6550, 6543, 6542, 6549
3537, 6523, 6516, 6515, 6522, 6544, 6537, 6536, 6543
3538, 6530, 6523, 6522, 6529, 6551, 6544, 6543, 6550
3539, 6524, 6517, 6516, 6523, 6545, 6538, 6537, 6544
3540, 6531, 6524, 6523, 6530, 6552, 6545, 6544, 6551
3541, 6540, 6533, 6532, 6539, 6561, 6554, 6553, 6560
3542, 6547, 6540, 6539, 6546, 6568, 6561, 6560, 6567
3543, 6541, 6534, 6533, 6540, 6562, 6555, 6554, 6561
3544, 6548, 6541, 6540, 6547, 6569, 6562, 6561, 6568
3545, 6542, 6535, 6534, 6541, 6563, 6556, 6555, 6562
3546, 6549, 6542, 6541, 6548, 6570, 6563, 6562, 6569
3547, 6543, 6536, 6535, 6542, 6564, 6557, 6556, 6563
3548, 6550, 6543, 6542, 6549, 6571, 6564, 6563, 6570
3549, 6544, 6537, 6536, 6543, 6565, 6558, 6557, 6564
3550, 6551, 6544, 6543, 6550, 6572, 6565, 6564, 6571
3551, 6545, 6538, 6537, 6544, 6566, 6559, 6558, 6565
3552, 6552, 6545, 6544, 6551, 6573, 6566, 6565, 6572
3553, 6561, 6554, 6553, 6560, 6582, 6575, 6574, 6581
3554, 6568, 6561, 6560, 6567, 6589, 6582, 6581, 6588
3555, 6562, 6555, 6554, 6561, 6583, 6576, 6575, 6582
3556, 6569, 6562, 6561, 6568, 6590, 6583, 6582, 6589
3557, 6563, 6556, 6555, 6562, 6584, 6577, 6576, 6583
3558, 6570, 6563, 6562, 6569, 6591, 6584, 6583, 6590
3559, 6564, 6557, 6556, 6563, 6585, 6578, 6577, 6584
3560, 6571, 6564, 6563, 6570, 6592, 6585, 6584, 6591
3561, 6565, 6558, 6557, 6564, 6586, 6579, 6578, 6585
3562, 6572, 6565, 6564, 6571, 6593, 6586, 6585, 6592
3563, 6566, 6559, 6558, 6565, 6587, 6580, 6579, 6586
3564, 6573, 6566, 6565, 6572, 6594, 6587, 6586, 6593
3565, 6582, 6575, 6574, 6581, 6603, 6596, 6595, 6602
3566, 6589, 6582, 6581, 6588, 6610, 6603, 6602, 6609
3567, 6583, 6576, 6575, 6582, 6604, 6597, 6596, 6603
3568, 6590, 6583, 6582, 6589, 6611, 6604, 6603, 6610
3569, 6584, 6577, 6576, 6583, 6605, 6598, 6597, 6604
3570, 6591, 6584, 6583, 6590, 6612, 6605, 6604, 6611
3571, 6585, 6578, 6577, 6584, 6606, 6599, 6598, 6605
3572, 6592, 6585, 6584, 6591, 6613, 6606, 6605, 6612
3573, 6586, 6579, 6578, 6585, 6607, 6600, 6599, 6606
3574, 6593, 6586, 6585, 6592, 6614, 6607, 6606, 6613
3575, 6587, 6580, 6579, 6586, 6608, 6601, 6600, 6607
3576, 6594, 6587, 6586, 6593, 6615, 6608, 6607, 6614
3577, 6603, 6596, 6595, 6602, 6624, 6617, 6616, 6623
3578, 6610, 6603, 6602, 6609, 6631, 6624, 6623, 6630
3579, 6604, 6597, 6596, 6603, 6625, 6618, 6617, 6624
3580, 6611, 6604, 6603, 6610, 6632, 6625, 6624, 6631
3581, 6605, 6598, 6597, 6604, 6626, 6619, 6618, 6625
3582, 6612, 6605, 6604, 6611, 6633, 6626, 6625, 6632
3583, 6606, 6599, 6598, 6605, 6627, 6620, 6619, 6626
3584, 6613, 6606, 6605, 6612, 6634, 6627, 6626, 6633
3585, 6607, 6600, 6599, 6606, 6628, 6621, 6620, 6627
3586, 6614, 6607, 6606, 6613, 6635, 6628, 6627, 6634
3587, 6608, 6601, 6600, 6607, 6629, 6622, 6621, 6628
3588, 6615, 6608, 6607, 6614, 6636, 6629, 6628, 6635
3589, 6624, 6617, 6616, 6623, 6645, 6638, 6637, 6644
3590, 6631, 6624, 6623, 6630, 6652, 6645, 6644, 6651
3591, 6625, 6618, 6617, 6624, 6646, 6639, 6638, 6645
3592, 6632, 6625, 6624, 6631, 6653, 6646, 6645, 6652
3593, 6626, 6619, 6618, 6625, 6647, 6640, 6639, 6646
3594, 6633, 6626, 6625, 6632, 6654, 6647, 6646, 6653
3595, 6627, 6620, 6619, 6626, 6648, 6641, 6640, 6647
3596, 6634, 6627, 6626, 6633, 6655, 6648, 6647, 6654
3597, 6628, 6621, 6620, 6627, 6649, 6642, 6641, 6648
3598, 6635, 6628, 6627, 6634, 6656, 6649, 6648, 6655
3599, 6629, 6622, 6621, 6628, 6650, 6643, 6642, 6649
3600, 6636, 6629, 6628, 6635, 6657, 6650, 6649, 6656
3601, 6645, 6638, 6637, 6644, 6666, 6659, 6658, 6665
3602, 6652, 6645, 6644, 6651, 6673, 6666, 6665, 6672
3603, 6646, 6639, 6638, 6645, 6667, 6660, 6659, 6666
3604, 6653, 6646, 6645, 6652, 6674, 6667, 6666, 6673
3605, 6647, 6640, 6639, 6646, 6668, 6661, 6660, 6667
3606, 6654, 6647, 6646, 6653, 6675, 6668, 6667, 6674
3607, 6648, 6641, 6640, 6647, 6669, 6662, 6661, 6668
3608, 6655, 6648, 6647, 6654, 6676, 6669, 6668, 6675
3609, 6649, 6642, 6641, 6648, 6670, 6663, 6662, 6669
3610, 6656, 6649, 6648, 6655, 6677, 6670, 6669, 6676
3611, 6650, 6643, 6642, 6649, 6671, 6664, 6663, 6670
3612, 6657, 6650, 6649, 6656, 6678, 6671, 6670, 6677
3613, 6666, 6659, 6658, 6665, 6687, 6680, 6679, 6686
3614, 6673, 6666, 6665, 6672, 6694, 6687, 6686, 6693
3615, 6667, 6660, 6659, 6666, 6688, 6681, 6680, 6687
3616, 6674, 6667, 6666, 6673, 6695, 6688, 6687, 6694
3617, 6668, 6661, 6660, 6667, 6689, 6682, 6681, 6688
3618, 6675, 6668, 6667, 6674, 6696, 6689, 6688, 6695
3619, 6669, 6662, 6661, 6668, 6690, 6683, 6682, 6689
3620, 6676, 6669, 6668, 6675, 6697, 6690, 6689, 6696
3621, 6670, 6663, 6662, 6669, 6691, 6684, 6683, 6690
3622, 6677, 6670, 6669, 6676, 6698, 6691, 6690, 6697
3623, 6671, 6664, 6663, 6670, 6692, 6685, 6684, 6691
3624, 6678, 6671, 6670, 6677, 6699, 6692, 6691, 6698
3625, 6687, 6680, 6679, 6686, 6708, 6701, 6700, 6707
3626, 6694, 6687, 6686, 6693, 6715, 6708, 6707, 6714
3627, 6688, 6681, 6680, 6687, 6709, 6702, 6701, 6708
3628, 6695, 6688, 6687, 6694, 6716, 6709, 6708, 6715
3629, 6689, 6682, 6681, 6688, 6710, 6703, 6702, 6709
3630, 6696, 6689, 6688, 6695, 6717, 6710, 6709, 6716
3631, 6690, 6683, 6682, 6689, 6711, 6704, 6703, 6710
3632, 6697, 6690, 6689, 6696, 6718, 6711, 6710, 6717
3633, 6691, 6684, 6683, 6690, 6712, 6705, 6704, 6711
3634, 6698, 6691, 6690, 6697, 6719, 6712, 6711, 6718
3635, 6692, 6685, 6684, 6691, 6713, 6706, 6705, 6712
3636, 6699, 6692, 6691, 6698, 6720, 6713, 6712, 6719
3637, 6708, 6701, 6700, 6707, 6729, 6722, 6721, 6728
3638, 6715, 6708, 6707, 6714, 6736, 6729, 6728, 6735
3639, 6709, 6702, 6701, 6708, 6730, 6723, 6722, 6729
3640, 6716, 6709, 6708, 6715, 6737, 6730, 6729, 6736
3641, 6710, 6703, 6702, 6709, 6731, 6724, 6723, 6730
3642, 6717, 6710, 6709, 6716, 6738, 6731, 6730, 6737
3643, 6711, 6704, 6703, 6710, 6732, 6725, 6724, 6731
3644, 6718, 6711, 6710, 6717, 6739, 6732, 6731, 6738
3645, 6712, 6705, 6704, 6711, 6733, 6726, 6725, 6732
3646, 6719, 6712, 6711, 6718, 6740, 6733, 6732, 6739
3647, 6713, 6706, 6705, 6712, 6734, 6727, 6726, 6733
3648, 6720, 6713, 6712, 6719, 6741, 6734, 6733, 6740
3649, 6729, 6722, 6721, 6728, 6750, 6743, 6742, 6749
3650, 6736, 6729, 6728, 6735, 6757, 6750, 6749, 6756
3651, 6730, 6723, 6722, 6729, 6751, 6744, 6743, 6750
3652, 6737, 6730, 6729, 6736, 6758, 6751, 6750, 6757
3653, 6731, 6724, 6723, 6730, 6752, 6745, 6744, 6751
3654, 6738, 6731, 6730, 6737, 6759, 6752, 6751, 6758
3655, 6732, 6725, 6724, 6731, 6753, 6746, 6745, 6752
3656, 6739, 6732, 6731, 6738, 6760, 6753, 6752, 6759
3657, 6733, 6726, 6725, 6732, 6754, 6747, 6746, 6753
3658, 6740, 6733, 6732, 6739, 6761, 6754, 6753, 6760
3659, 6734, 6727, 6726, 6733, 6755, 6748, 6747, 6754
3660, 6741, 6734, 6733, 6740, 6762, 6755, 6754, 6761
3661, 6750, 6743, 6742, 6749, 6771, 6764, 6763, 6770
3662, 6757, 6750, 6749, 6756, 6778, 6771, 6770, 6777
3663, 6751, 6744, 6743, 6750, 6772, 6765, 6764, 6771
3664, 6758, 6751, 6750, 6757, 6779, 6772, 6771, 6778
3665, 6752, 6745, 6744, 6751, 6773, 6766, 6765, 6772
3666, 6759, 6752, 6751, 6758, 6780, 6773, 6772, 6779
3667, 6753, 6746, 6745, 6752, 6774, 6767, 6766, 6773
3668, 6760, 6753, 6752, 6759, 6781, 6774, 6773, 6780
3669, 6754, 6747, 6746, 6753, 6775, 6768, 6767, 6774
3670, 6761, 6754, 6753, 6760, 6782, 6775, 6774, 6781
3671, 6755, 6748, 6747, 6754, 6776, 6769, 6768, 6775
3672, 6762, 6755, 6754, 6761, 6783, 6776, 6775, 6782
3673, 6792, 6785, 6784, 6791, 6813, 6806, 6805, 6812
3674, 6799, 6792, 6791, 6798, 6820, 6813, 6812, 6819
3675, 6793, 6786, 6785, 6792, 6814, 6807, 6806, 6813
3676, 6800, 6793, 6792, 6799, 6821, 6814, 6813, 6820
3677, 6794, 6787, 6786, 6793, 6815, 6808, 6807, 6814
3678, 6801, 6794, 6793, 6800, 6822, 6815, 6814, 6821
3679, 6795, 6788, 6787, 6794, 6816, 6809, 6808, 6815
3680, 6802, 6795, 6794, 6801, 6823, 6816, 6815, 6822
3681, 6796, 6789, 6788, 6795, 6817, 6810, 6809, 6816
3682, 6803, 6796, 6795, 6802, 6824, 6817, 6816, 6823
3683, 6797, 6790, 6789, 6796, 6818, 6811, 6810, 6817
3684, 6804, 6797, 6796, 6803, 6825, 6818, 6817, 6824
3685, 6813, 6806, 6805, 6812, 6834, 6827, 6826, 6833
3686, 6820, 6813, 6812, 6819, 6841, 6834, 6833, 6840
3687, 6814, 6807, 6806, 6813, 6835, 6828, 6827, 6834
3688, 6821, 6814, 6813, 6820, 6842, 6835, 6834, 6841
3689, 6815, 6808, 6807, 6814, 6836, 6829, 6828, 6835
3690, 6822, 6815, 6814, 6821, 6843, 6836, 6835, 6842
3691, 6816, 6809, 6808, 6815, 6837, 6830, 6829, 6836
3692, 6823, 6816, 6815, 6822, 6844, 6837, 6836, 6843
3693, 6817, 6810, 6809, 6816, 6838, 6831, 6830, 6837
3694, 6824, 6817, 6816, 6823, 6845, 6838, 6837, 6844
3695, 6818, 6811, 6810, 6817, 6839, 6832, 6831, 6838
3696, 6825, 6818, 6817, 6824, 6846, 6839, 6838, 6845
3697, 6834, 6827, 6826, 6833, 6855, 6848, 6847, 6854
3698, 6841, 6834, 6833, 6840, 6862, 6855, 6854, 6861
3699, 6835, 6828, 6827, 6834, 6856, 6849, 6848, 6855
3700, 6842, 6835, 6834, 6841, 6863, 6856, 6855, 6862
3701, 6836, 6829, 6828, 6835, 6857, 6850, 6849, 6856
3702, 6843, 6836, 6835, 6842, 6864, 6857, 6856, 6863
3703, 6837, 6830, 6829, 6836, 6858, 6851, 6850, 6857
3704, 6844, 6837, 6836, 6843, 6865, 6858, 6857, 6864
3705, 6838, 6831, 6830, 6837, 6859, 6852, 6851, 6858
3706, 6845, 6838, 6837, 6844, 6866, 6859, 6858, 6865
3707, 6839, 6832, 6831, 6838, 6860, 6853, 6852, 6859
3708, 6846, 6839, 6838, 6845, 6867, 6860, 6859, 6866
3709, 6855, 6848, 6847, 6854, 6876, 6869, 6868, 6875
3710, 6862, 6855, 6854, 6861, 6883, 6876, 6875, 6882
3711, 6856, 6849, 6848, 6855, 6877, 6870, 6869, 6876
3712, 6863, 6856, 6855, 6862, 6884, 6877, 6876, 6883
3713, 6857, 6850, 6849, 6856, 6878, 6871, 6870, 6877
3714, 6864, 6857, 6856, 6863, 6885, 6878, 6877, 6884
3715, 6858, 6851, 6850, 6857, 6879, 6872, 6871, 6878
3716, 6865, 6858, 6857, 6864, 6886, 6879, 6878, 6885
3717, 6859, 6852, 6851, 6858, 6880, 6873, 6872, 6879
3718, 6866, 6859, 6858, 6865, 6887, 6880, 6879, 6886
3719, 6860, 6853, 6852, 6859, 6881, 6874, 6873, 6880
3720, 6867, 6860, 6859, 6866, 6888, 6881, 6880, 6887
3721, 6876, 6869, 6868, 6875, 6897, 6890, 6889, 6896
3722, 6883, 6876, 6875, 6882, 6904, 6897, 6896, 6903
3723, 6877, 6870, 6869, 6876, 6898, 6891, 6890, 6897
3724, 6884, 6877, 6876, 6883, 6905, 6898, 6897, 6904
3725, 6878, 6871, 6870, 6877, 6899, 6892, 6891, 6898
3726, 6885, 6878, 6877, 6884, 6906, 6899, 6898, 6905
3727, 6879, 6872, 6871, 6878, 6900, 6893, 6892, 6899
3728, 6886, 6879, 6878, 6885, 6907, 6900, 6899, 6906
3729, 6880, 6873, 6872, 6879, 6901, 6894, 6893, 6900
3730, 6887, 6880, 6879, 6886, 6908, 6901, 6900, 6907
3731, 6881, 6874, 6873, 6880, 6902, 6895, 6894, 6901
3732, 6888, 6881, 6880, 6887, 6909, 6902, 6901, 6908
3733, 6897, 6890, 6889, 6896, 6918, 6911, 6910, 6917
3734, 6904, 6897, 6896, 6903, 6925, 6918, 6917, 6924
3735, 6898, 6891, 6890, 6897, 6919, 6912, 6911, 6918
3736, 6905, 6898, 6897, 6904, 6926, 6919, 6918, 6925
3737, 6899, 6892, 6891, 6898, 6920, 6913, 6912, 6919
3738, 6906, 6899, 6898, 6905, 6927, 6920, 6919, 6926
3739, 6900, 6893, 6892, 6899, 6921, 6914, 6913, 6920
3740, 6907, 6900, 6899, 6906, 6928, 6921, 6920, 6927
3741, 6901, 6894, 6893, 6900, 6922, 6915, 6914, 6921
3742, 6908, 6901, 6900, 6907, 6929, 6922, 6921, 6928
3743, 6902, 6895, 6894, 6901, 6923, 6916, 6915, 6922
3744, 6909, 6902, 6901, 6908, 6930, 6923, 6922, 6929
3745, 6918, 6911, 6910, 6917, 6939, 6932, 6931, 6938
3746, 6925, 6918, 6917, 6924, 6946, 6939, 6938, 6945
3747, 6919, 6912, 6911, 6918, 6940, 6933, 6932, 6939
3748, 6926, 6919, 6918, 6925, 6947, 6940, 6939, 6946
3749, 6920, 6913, 6912, 6919, 6941, 6934, 6933, 6940
3750, 6927, 6920, 6919, 6926, 6948, 6941, 6940, 6947
3751, 6921, 6914, 6913, 6920, 6942, 6935, 6934, 6941
3752, 6928, 6921, 6920, 6927, 6949, 6942, 6941, 6948
3753, 6922, 6915, 6914, 6921, 6943, 6936, 6935, 6942
3754, 6929, 6922, 6921, 6928, 6950, 6943, 6942, 6949
3755, 6923, 6916, 6915, 6922, 6944, 6937, 6936, 6943
3756, 6930, 6923, 6922, 6929, 6951, 6944, 6943, 6950
3757, 6939, 6932, 6931, 6938, 6960, 6953, 6952, 6959
3758, 6946, 6939, 6938, 6945, 6967, 6960, 6959, 6966
3759, 6940, 6933, 6932, 6939, 6961, 6954, 6953, 6960
3760, 6947, 6940, 6939, 6946, 6968, 6961, 6960, 6967
3761, 6941, 6934, 6933, 6940, 6962, 6955, 6954, 6961
3762, 6948, 6941, 6940, 6947, 6969, 6962, 6961, 6968
3763, 6942, 6935, 6934, 6941, 6963, 6956, 6955, 6962
3764, 6949, 6942, 6941, 6948, 6970, 6963, 6962, 6969
3765, 6943, 6936, 6935, 6942, 6964, 6957, 6956, 6963
3766, 6950, 6943, 6942, 6949, 6971, 6964, 6963, 6970
3767, 6944, 6937, 6936, 6943, 6965, 6958, 6957, 6964
3768, 6951, 6944, 6943, 6950, 6972, 6965, 6964, 6971
3769, 6960, 6953, 6952, 6959, 6981, 6974, 6973, 6980
3770, 6967, 6960, 6959, 6966, 6988, 6981, 6980, 6987
3771, 6961, 6954, 6953, 6960, 6982, 6975, 6974, 6981
3772, 6968, 6961, 6960, 6967, 6989, 6982, 6981, 6988
3773, 6962, 6955, 6954, 6961, 6983, 6976, 6975, 6982
3774, 6969, 6962, 6961, 6968, 6990, 6983, 6982, 6989
3775, 6963, 6956, 6955, 6962, 6984, 6977, 6976, 6983
3776, 6970, 6963, 6962, 6969, 6991, 6984, 6983, 6990
3777, 6964, 6957, 6956, 6963, 6985, 6978, 6977, 6984
3778, 6971, 6964, 6963, 6970, 6992, 6985, 6984, 6991
3779, 6965, 6958, 6957, 6964, 6986, 6979, 6978, 6985
3780, 6972, 6965, 6964, 6971, 6993, 6986, 6985, 6992
3781, 6981, 6974, 6973, 6980, 7002, 6995, 6994, 7001
3782, 6988, 6981, 6980, 6987, 7009, 7002, 7001, 7008
3783, 6982, 6975, 6974, 6981, 7003, 6996, 6995, 7002
3784, 6989, 6982, 6981, 6988, 7010, 7003, 7002, 7009
3785, 6983, 6976, 6975, 6982, 7004, 6997, 6996, 7003
3786, 6990, 6983, 6982, 6989, 7011, 7004, 7003, 7010
3787, 6984, 6977, 6976, 6983, 7005, 6998, 6997, 7004
3788, 6991, 6984, 6983, 6990, 7012, 7005, 7004, 7011
3789, 6985, 6978, 6977, 6984, 7006, 6999, 6998, 7005
3790, 6992, 6985, 6984, 6991, 7013, 7006, 7005, 7012
3791, 6986, 6979, 6978, 6985, 7007, 7000, 6999, 7006
3792, 6993, 6986, 6985, 6992, 7014, 7007, 7006, 7013
3793, 7002, 6995, 6994, 7001, 7023, 7016, 7015, 7022
3794, 7009, 7002, 7001, 7008, 7030, 7023, 7022, 7029
3795, 7003, 6996, 6995, 7002, 7024, 7017, 7016, 7023
3796, 7010, 7003, 7002, 7009, 7031, 7024, 7023, 7030
3797, 7004, 6997, 6996, 7003, 7025, 7018, 7017, 7024
3798, 7011, 7004, 7003, 7010, 7032, 7025, 7024, 7031
3799, 7005, 6998, 6997, 7004, 7026, 7019, 7018, 7025
3800, 7012, 7005, 7004, 7011, 7033, 7026, 7025, 7032
3801, 7006, 6999, 6998, 7005, 7027, 7020, 7019, 7026
3802, 7013, 7006, 7005, 7012, 7034, 7027, 7026, 7033
3803, 7007, 7000, 6999, 7006, 7028, 7021, 7020, 7027
3804, 7014, 7007, 7006, 7013, 7035, 7028, 7027, 7034
3805, 7023, 7016, 7015, 7022, 7044, 7037, 7036, 7043
3806, 7030, 7023, 7022, 7029, 7051, 7044, 7043, 7050
3807, 7024, 7017, 7016, 7023, 7045, 7038, 7037, 7044
3808, 7031, 7024, 7023, 7030, 7052, 7045, 7044, 7051
3809, 7025, 7018, 7017, 7024, 7046, 7039, 7038, 7045
3810, 7032, 7025, 7024, 7031, 7053, 7046, 7045, 7052
3811, 7026, 7019, 7018, 7025, 7047, 7040, 7039, 7046
3812, 7033, 7026, 7025, 7032, 7054, 7047, 7046, 7053
3813, 7027, 7020, 7019, 7026, 7048, 7041, 7040, 7047
3814, 7034, 7027, 7026, 7033, 7055, 7048, 7047, 7054
3815, 7028, 7021, 7020, 7027, 7049, 7042, 7041, 7048
3816, 7035, 7028, 7027, 7034, 7056, 7049, 7048, 7055
3817, 7044, 7037, 7036, 7043, 7065, 7058, 7057, 7064
3818, 7051, 7044, 7043, 7050, 7072, 7065, 7064, 7071
3819, 7045, 7038, 7037, 7044, 7066, 7059, 7058, 7065
3820, 7052, 7045, 7044, 7051, 7073, 7066, 7065, 7072
3821, 7046, 7039, 7038, 7045, 7067, 7060, 7059, 7066
3822, 7053, 7046, 7045, 7052, 7074, 7067, 7066, 7073
3823, 7047, 7040, 7039, 7046, 7068, 7061, 7060, 7067
3824, 7054, 7047, 7046, 7053, 7075, 7068, 7067, 7074
3825, 7048, 7041, 7040, 7047, 7069, 7062, 7061, 7068
3826, 7055, 7048, 7047, 7054, 7076, 7069, 7068, 7075
3827, 7049, 7042, 7041, 7048, 7070, 7063, 7062, 7069
3828, 7056, 7049, 7048, 7055, 7077, 7070, 7069, 7076
3829, 7065, 7058, 7057, 7064, 7086, 7079, 7078, 7085
3830, 7072, 7065, 7064, 7071, 7093, 7086, 7085, 7092
3831, 7066, 7059, 7058, 7065, 7087, 7080, 7079, 7086
3832, 7073, 7066, 7065, 7072, 7094, 7087, 7086, 7093
3833, 7067, 7060, 7059, 7066, 7088, 7081, 7080, 7087
3834, 7074, 7067, 7066, 7073, 7095, 7088, 7087, 7094
3835, 7068, 7061, 7060, 7067, 7089, 7082, 7081, 7088
3836, 7075, 7068, 7067, 7074, 7096, 7089, 7088, 7095
3837, 7069, 7062, 7061, 7068, 7090, 7083, 7082, 7089
3838, 7076, 7069, 7068, 7075, 7097, 7090, 7089, 7096
3839, 7070, 7063, 7062, 7069, 7091, 7084, 7083, 7090
3840, 7077, 7070, 7069, 7076, 7098, 7091, 7090, 7097
3841, 7086, 7079, 7078, 7085, 7107, 7100, 7099, 7106
3842, 7093, 7086, 7085, 7092, 7114, 7107, 7106, 7113
3843, 7087, 7080, 7079, 7086, 7108, 7101, 7100, 7107
3844, 7094, 7087, 7086, 7093, 7115, 7108, 7107, 7114
3845, 7088, 7081, 7080, 7087, 7109, 7102, 7101, 7108
3846, 7095, 7088, 7087, 7094, 7116, 7109, 7108, 7115
3847, 7089, 7082, 7081, 7088, 7110, 7103, 7102, 7109
3848, 7096, 7089, 7088, 7095, 7117, 7110, 7109, 7116
3849, 7090, 7083, 7082, 7089, 7111, 7104, 7103, 7110
3850, 7097, 7090, 7089, 7096, 7118, 7111, 7110, 7117
3851, 7091, 7084, 7083, 7090, 7112, 7105, 7104, 7111
3852, 7098, 7091, 7090, 7097, 7119, 7112, 7111, 7118
3853, 7107, 7100, 7099, 7106, 7128, 7121, 7120, 7127
3854, 7114, 7107, 7106, 7113, 7135, 7128, 7127, 7134
3855, 7108, 7101, 7100, 7107, 7129, 7122, 7121, 7128
3856, 7115, 7108, 7107, 7114, 7136, 7129, 7128, 7135
3857, 7109, 7102, 7101, 7108, 7130, 7123, 7122, 7129
3858, 7116, 7109, 7108, 7115, 7137, 7130, 7129, 7136
3859, 7110, 7103, 7102, 7109, 7131, 7124, 7123, 7130
3860, 7117, 7110, 7109, 7116, 7138, 7131, 7130, 7137
3861, 7111, 7104, 7103, 7110, 7132, 7125, 7124, 7131
3862, 7118, 7111, 7110, 7117, 7139, 7132, 7131, 7138
3863, 7112, 7105, 7104, 7111, 7133, 7126, 7125, 7132
3864, 7119, 7112, 7111, 7118, 7140, 7133, 7132, 7139
3865, 7128, 7121, 7120, 7127, 7149, 7142, 7141, 7148
3866, 7135, 7128, 7127, 7134, 7156, 7149, 7148, 7155
3867, 7129, 7122, 7121, 7128, 7150, 7143, 7142, 7149
3868, 7136, 7129, 7128, 7135, 7157, 7150, 7149, 7156
3869, 7130, 7123, 7122, 7129, 7151, 7144, 7143, 7150
3870, 7137, 7130, 7129, 7136, 7158, 7151, 7150, 7157
3871, 7131, 7124, 7123, 7130, 7152, 7145, 7144, 7151
3872, 7138, 7131, 7130, 7137, 7159, 7152, 7151, 7158
3873, 7132, 7125, 7124, 7131, 7153, 7146, 7145, 7152
3874, 7139, 7132, 7131, 7138, 7160, 7153, 7152, 7159
3875, 7133, 7126, 7125, 7132, 7154, 7147, 7146, 7153
3876, 7140, 7133, 7132, 7139, 7161, 7154, 7153, 7160
3877, 7149, 7142, 7141, 7148, 7170, 7163, 7162, 7169
3878, 7156, 7149, 7148, 7155, 7177, 7170, 7169, 7176
3879, 7150, 7143, 7142, 7149, 7171, 7164, 7163, 7170
3880, 7157, 7150, 7149, 7156, 7178, 7171, 7170, 7177
3881, 7151, 7144, 7143, 7150, 7172, 7165, 7164, 7171
3882, 7158, 7151, 7150, 7157, 7179, 7172, 7171, 7178
3883, 7152, 7145, 7144, 7151, 7173, 7166, 7165, 7172
3884, 7159, 7152, 7151, 7158, 7180, 7173, 7172, 7179
3885, 7153, 7146, 7145, 7152, 7174, 7167, 7166, 7173
3886, 7160, 7153, 7152, 7159, 7181, 7174, 7173, 7180
3887, 7154, 7147, 7146, 7153, 7175, 7168, 7167, 7174
3888, 7161, 7154, 7153, 7160, 7182, 7175, 7174, 7181
3889, 7191, 7184, 7183, 7190, 7212, 7205, 7204, 7211
3890, 7198, 7191, 7190, 7197, 7219, 7212, 7211, 7218
3891, 7192, 7185, 7184, 7191, 7213, 7206, 7205, 7212
3892, 7199, 7192, 7191, 7198, 7220, 7213, 7212, 7219
3893, 7193, 7186, 7185, 7192, 7214, 7207, 7206, 7213
3894, 7200, 7193, 7192, 7199, 7221, 7214, 7213, 7220
3895, 7194, 7187, 7186, 7193, 7215, 7208, 7207, 7214
3896, 7201, 7194, 7193, 7200, 7222, 7215, 7214, 7221
3897, 7195, 7188, 7187, 7194, 7216, 7209, 7208, 7215
3898, 7202, 7195, 7194, 7201, 7223, 7216, 7215, 7222
3899, 7196, 7189, 7188, 7195, 7217, 7210, 7209, 7216
3900, 7203, 7196, 7195, 7202, 7224, 7217, 7216, 7223
3901, 7212, 7205, 7204, 7211, 7233, 7226, 7225, 7232
3902, 7219, 7212, 7211, 7218, 7240, 7233, 7232, 7239
3903, 7213, 7206, 7205, 7212, 7234, 7227, 7226, 7233
3904, 7220, 7213, 7212, 7219, 7241, 7234, 7233, 7240
3905, 7214, 7207, 7206, 7213, 7235, 7228, 7227, 7234
3906, 7221, 7214, 7213, 7220, 7242, 7235, 7234, 7241
3907, 7215, 7208, 7207, 7214, 7236, 7229, 7228, 7235
3908, 7222, 7215, 7214, 7221, 7243, 7236, 7235, 7242
3909, 7216, 7209, 7208, 7215, 7237, 7230, 7229, 7236
3910, 7223, 7216, 7215, 7222, 7244, 7237, 7236, 7243
3911, 7217, 7210, 7209, 7216, 7238, 7231, 7230, 7237
3912, 7224, 7217, 7216, 7223, 7245, 7238, 7237, 7244
3913, 7233, 7226, 7225, 7232, 7254, 7247, 7246, 7253
3914, 7240, 7233, 7232, 7239, 7261, 7254, 7253, 7260
3915, 7234, 7227, 7226, 7233, 7255, 7248, 7247, 7254
3916, 7241, 7234, 7233, 7240, 7262, 7255, 7254, 7261
3917, 7235, 7228, 7227, 7234, 7256, 7249, 7248, 7255
3918, 7242, 7235, 7234, 7241, 7263, 7256, 7255, 7262
3919, 7236, 7229, 7228, 7235, 7257, 7250, 7249, 7256
3920, 7243, 7236, 7235, 7242, 7264, 7257, 7256, 7263
3921, 7237, 7230, 7229, 7236, 7258, 7251, 7250, 7257
3922, 7244, 7237, 7236, 7243, 7265, 7258, 7257, 7264
3923, 7238, 7231, 7230, 7237, 7259, 7252, 7251, 7258
3924, 7245, 7238, 7237, 7244, 7266, 7259, 7258, 7265
3925, 7254, 7247, 7246, 7253, 7275, 7268, 7267, 7274
3926, 7261, 7254, 7253, 7260, 7282, 7275, 7274, 7281
3927, 7255, 7248, 7247, 7254, 7276, 7269, 7268, 7275
3928, 7262, 7255, 7254, 7261, 7283, 7276, 7275, 7282
3929, 7256, 7249, 7248, 7255, 7277, 7270, 7269, 7276
3930, 7263, 7256, 7255, 7262, 7284, 7277, 7276, 7283
3931, 7257, 7250, 7249, 7256, 7278, 7271, 7270, 7277
3932, 7264, 7257, 7256, 7263, 7285, 7278, 7277, 7284
3933, 7258, 7251, 7250, 7257, 7279, 7272, 7271, 7278
3934, 7265, 7258, 7257, 7264, 7286, 7279, 7278, 7285
3935, 7259, 7252, 7251, 7258, 7280, 7273, 7272, 7279
3936, 7266, 7259, 7258, 7265, 7287, 7280, 7279, 7286
3937, 7275, 7268, 7267, 7274, 7296, 7289, 7288, 7295
3938, 7282, 7275, 7274, 7281, 7303, 7296, 7295, 7302
3939, 7276, 7269, 7268, 7275, 7297, 7290, 7289, 7296
3940, 7283, 7276, 7275, 7282, 7304, 7297, 7296, 7303
3941, 7277, 7270, 7269, 7276, 7298, 7291, 7290, 7297
3942, 7284, 7277, 7276, 7283, 7305, 7298, 7297, 7304
3943, 7278, 7271, 7270, 7277, 7299, 7292, 7291, 7298
3944, 7285, 7278, 7277, 7284, 7306, 7299, 7298, 7305
3945, 7279, 7272, 7271, 7278, 7300, 7293, 7292, 7299
3946, 7286, 7279, 7278, 7285, 7307, 7300, 7299, 7306
3947, 7280, 7273, 7272, 7279, 7301, 7294, 7293, 7300
3948, 7287, 7280, 7279, 7286, 7308, 7301, 7300, 7307
3949, 7296, 7289, 7288, 7295, 7317, 7310, 7309, 7316
3950, 7303, 7296, 7295, 7302, 7324, 7317, 7316, 7323
3951, 7297, 7290, 7289, 7296, 7318, 7311, 7310, 7317
3952, 7304, 7297, 7296, 7303, 7325, 7318, 7317, 7324
3953, 7298, 7291, 7290, 7297, 7319, 7312, 7311, 7318
3954, 7305, 7298, 7297, 7304, 7326, 7319, 7318, 7325
3955, 7299, 7292, 7291, 7298, 7320, 7313, 7312, 7319
3956, 7306, 7299, 7298, 7305, 7327, 7320, 7319, 7326
3957, 7300, 7293, 7292, 7299, 7321, 7314, 7313, 7320
3958, 7307, 7300, 7299, 7306, 7328, 7321, 7320, 7327
3959, 7301, 7294, 7293, 7300, 7322, 7315, 7314, 7321
3960, 7308, 7301, 7300, 7307, 7329, 7322, 7321, 7328
3961, 7317, 7310, 7309, 7316, 7338, 7331, 7330, 7337
3962, 7324, 7317, 7316, 7323, 7345, 7338, 7337, 7344
3963, 7318, 7311, 7310, 7317, 7339, 7332, 7331, 7338
3964, 7325, 7318, 7317, 7324, 7346, 7339, 7338, 7345
3965, 7319, 7312, 7311, 7318, 7340, 7333, 7332, 7339
3966, 7326, 7319, 7318, 7325, 7347, 7340, 7339, 7346
3967, 7320, 7313, 7312, 7319, 7341, 7334, 7333, 7340
3968, 7327, 7320, 7319, 7326, 7348, 7341, 7340, 7347
3969, 7321, 7314, 7313, 7320, 7342, 7335, 7334, 7341
3970, 7328, 7321, 7320, 7327, 7349, 7342, 7341, 7348
3971, 7322, 7315, 7314, 7321, 7343, 7336, 7335, 7342
3972, 7329, 7322, 7321, 7328, 7350, 7343, 7342, 7349
3973, 7338, 7331, 7330, 7337, 7359, 7352, 7351, 7358
3974, 7345, 7338, 7337, 7344, 7366, 7359, 7358, 7365
3975, 7339, 7332, 7331, 7338, 7360, 7353, 7352, 7359
3976, 7346, 7339, 7338, 7345, 7367, 7360, 7359, 7366
3977, 7340, 7333, 7332, 7339, 7361, 7354, 7353, 7360
3978, 7347, 7340, 7339, 7346, 7368, 7361, 7360, 7367
3979, 7341, 7334, 7333, 7340, 7362, 7355, 7354, 7361
3980, 7348, 7341, 7340, 7347, 7369, 7362, 7361, 7368
3981, 7342, 7335, 7334, 7341, 7363, 7356, 7355, 7362
3982, 7349, 7342, 7341, 7348, 7370, 7363, 7362, 7369
3983, 7343, 7336, 7335, 7342, 7364, 7357, 7356, 7363
3984, 7350, 7343, 7342, 7349, 7371, 7364, 7363, 7370
3985, 7359, 7352, 7351, 7358, 7380, 7373, 7372, 7379
3986, 7366, 7359, 7358, 7365, 7387, 7380, 7379, 7386
3987, 7360, 7353, 7352, 7359, 7381, 7374, 7373, 7380
3988, 7367, 7360, 7359, 7366, 7388, 7381, 7380, 7387
3989, 7361, 7354, 7353, 7360, 7382, 7375, 7374, 7381
3990, 7368, 7361, 7360, 7367, 7389, 7382, 7381, 7388
3991, 7362, 7355, 7354, 7361, 7383, 7376, 7375, 7382
3992, 7369, 7362, 7361, 7368, 7390, 7383, 7382, 7389
3993, 7363, 7356, 7355, 7362, 7384, 7377, 7376, 7383
3994, 7370, 7363, 7362, 7369, 7391, 7384, 7383, 7390
3995, 7364, 7357, 7356, 7363, 7385, 7378, 7377, 7384
3996, 7371, 7364, 7363, 7370, 7392, 7385, 7384, 7391
3997, 7380, 7373, 7372, 7379, 7401, 7394, 7393, 7400
3998, 7387, 7380, 7379, 7386, 7408, 7401, 7400, 7407
3999, 7381, 7374, 7373, 7380, 7402, 7395, 7394, 7401
4000, 7388, 7381, 7380, 7387, 7409, 7402, 7401, 7408
4001, 7382, 7375, 7374, 7381, 7403, 7396, 7395, 7402
4002, 7389, 7382, 7381, 7388, 7410, 7403, 7402, 7409
4003, 7383, 7376, 7375, 7382, 7404, 7397, 7396, 7403
4004, 7390, 7383, 7382, 7389, 7411, 7404, 7403, 7410
4005, 7384, 7377, 7376, 7383, 7405, 7398, 7397, 7404
4006, 7391, 7384, 7383, 7390, 7412, 7405, 7404, 7411
4007, 7385, 7378, 7377, 7384, 7406, 7399, 7398, 7405
4008, 7392, 7385, 7384, 7391, 7413, 7406, 7405, 7412
4009, 7401, 7394, 7393, 7400, 7422, 7415, 7414, 7421
4010, 7408, 7401, 7400, 7407, 7429, 7422, 7421, 7428
4011, 7402, 7395, 7394, 7401, 7423, 7416, 7415, 7422
4012, 7409, 7402, 7401, 7408, 7430, 7423, 7422, 7429
4013, 7403, 7396, 7395, 7402, 7424, 7417, 7416, 7423
4014, 7410, 7403, 7402, 7409, 7431, 7424, 7423, 7430
4015, 7404, 7397, 7396, 7403, 7425, 7418, 7417, 7424
4016, 7411, 7404, 7403, 7410, 7432, 7425, 7424, 7431
4017, 7405, 7398, 7397, 7404, 7426, 7419, 7418, 7425
4018, 7412, 7405, 7404, 7411, 7433, 7426, 7425, 7432
4019, 7406, 7399, 7398, 7405, 7427, 7420, 7419, 7426
4020, 7413, 7406, 7405, 7412, 7434, 7427, 7426, 7433
4021, 7422, 7415, 7414, 7421, 7443, 7436, 7435, 7442
4022, 7429, 7422, 7421, 7428, 7450, 7443, 7442, 7449
4023, 7423, 7416, 7415, 7422, 7444, 7437, 7436, 7443
4024, 7430, 7423, 7422, 7429, 7451, 7444, 7443, 7450
4025, 7424, 7417, 7416, 7423, 7445, 7438, 7437, 7444
4026, 7431, 7424, 7423, 7430, 7452, 7445, 7444, 7451
4027, 7425, 7418, 7417, 7424, 7446, 7439, 7438, 7445
4028, 7432, 7425, 7424, 7431, 7453, 7446, 7445, 7452
4029, 7426, 7419, 7418, 7425, 7447, 7440, 7439, 7446
4030, 7433, 7426, 7425, 7432, 7454, 7447, 7446, 7453
4031, 7427, 7420, 7419, 7426, 7448, 7441, 7440, 7447
4032, 7434, 7427, 7426, 7433, 7455, 7448, 7447, 7454
4033, 7443, 7436, 7435, 7442, 7464, 7457, 7456, 7463
4034, 7450, 7443, 7442, 7449, 7471, 7464, 7463, 7470
4035, 7444, 7437, 7436, 7443, 7465, 7458, 7457, 7464
4036, 7451, 7444, 7443, 7450, 7472, 7465, 7464, 7471
4037, 7445, 7438, 7437, 7444, 7466, 7459, 7458, 7465
4038, 7452, 7445, 7444, 7451, 7473, 7466, 7465, 7472
4039, 7446, 7439, 7438, 7445, 7467, 7460, 7459, 7466
4040, 7453, 7446, 7445, 7452, 7474, 7467, 7466, 7473
4041, 7447, 7440, 7439, 7446, 7468, 7461, 7460, 7467
4042, 7454, 7447, 7446, 7453, 7475, 7468, 7467, 7474
4043, 7448, 7441, 7440, 7447, 7469, 7462, 7461, 7468
4044, 7455, 7448, 7447, 7454, 7476, 7469, 7468, 7475
4045, 7464, 7457, 7456, 7463, 7485, 7478, 7477, 7484
4046, 7471, 7464, 7463, 7470, 7492, 7485, 7484, 7491
4047, 7465, 7458, 7457, 7464, 7486, 7479, 7478, 7485
4048, 7472, 7465, 7464, 7471, 7493, 7486, 7485, 7492
4049, 7466, 7459, 7458, 7465, 7487, 7480, 7479, 7486
4050, 7473, 7466, 7465, 7472, 7494, 7487, 7486, 7493
4051, 7467, 7460, 7459, 7466, 7488, 7481, 7480, 7487
4052, 7474, 7467, 7466, 7473, 7495, 7488, 7487, 7494
4053, 7468, 7461, 7460, 7467, 7489, 7482, 7481, 7488
4054, 7475, 7468, 7467, 7474, 7496, 7489, 7488, 7495
4055, 7469, 7462, 7461, 7468, 7490, 7483, 7482, 7489
4056, 7476, 7469, 7468, 7475, 7497, 7490, 7489, 7496
4057, 7485, 7478, 7477, 7484, 7506, 7499, 7498, 7505
4058, 7492, 7485, 7484, 7491, 7513, 7506, 7505, 7512
4059, 7486, 7479, 7478, 7485, 7507, 7500, 7499, 7506
4060, 7493, 7486, 7485, 7492, 7514, 7507, 7506, 7513
4061, 7487, 7480, 7479, 7486, 7508, 7501, 7500, 7507
4062, 7494, 7487, 7486, 7493, 7515, 7508, 7507, 7514
4063, 7488, 7481, 7480, 7487, 7509, 7502, 7501, 7508
4064, 7495, 7488, 7487, 7494, 7516, 7509, 7508, 7515
4065, 7489, 7482, 7481, 7488, 7510, 7503, 7502, 7509
4066, 7496, 7489, 7488, 7495, 7517, 7510, 7509, 7516
4067, 7490, 7483, 7482, 7489, 7511, 7504, 7503, 7510
4068, 7497, 7490, 7489, 7496, 7518, 7511, 7510, 7517
4069, 7506, 7499, 7498, 7505, 7527, 7520, 7519, 7526
4070, 7513, 7506, 7505, 7512, 7534, 7527, 7526, 7533
4071, 7507, 7500, 7499, 7506, 7528, 7521, 7520, 7527
4072, 7514, 7507, 7506, 7513, 7535, 7528, 7527, 7534
4073, 7508, 7501, 7500, 7507, 7529, 7522, 7521, 7528
4074, 7515, 7508, 7507, 7514, 7536, 7529, 7528, 7535
4075, 7509, 7502, 7501, 7508, 7530, 7523, 7522, 7529
4076, 7516, 7509, 7508, 7515, 7537, 7530, 7529, 7536
4077, 7510, 7503, 7502, 7509, 7531, 7524, 7523, 7530
4078, 7517, 7510, 7509, 7516, 7538, 7531, 7530, 7537
4079, 7511, 7504, 7503, 7510, 7532, 7525, 7524, 7531
4080, 7518, 7511, 7510, 7517, 7539, 7532, 7531, 7538
4081, 7527, 7520, 7519, 7526, 7548, 7541, 7540, 7547
4082, 7534, 7527, 7526, 7533, 7555, 7548, 7547, 7554
4083, 7528, 7521, 7520, 7527, 7549, 7542, 7541, 7548
4084, 7535, 7528, 7527, 7534, 7556, 7549, 7548, 7555
4085, 7529, 7522, 7521, 7528, 7550, 7543, 7542, 7549
4086, 7536, 7529, 7528, 7535, 7557, 7550, 7549, 7556
4087, 7530, 7523, 7522, 7529, 7551, 7544, 7543, 7550
4088, 7537, 7530, 7529, 7536, 7558, 7551, 7550, 7557
4089, 7531, 7524, 7523, 7530, 7552, 7545, 7544, 7551
4090, 7538, 7531, 7530, 7537, 7559, 7552, 7551, 7558
4091, 7532, 7525, 7524, 7531, 7553, 7546, 7545, 7552
4092, 7539, 7532, 7531, 7538, 7560, 7553, 7552, 7559
4093, 7548, 7541, 7540, 7547, 7569, 7562, 7561, 7568
4094, 7555, 7548, 7547, 7554, 7576, 7569, 7568, 7575
4095, 7549, 7542, 7541, 7548, 7570, 7563, 7562, 7569
4096, 7556, 7549, 7548, 7555, 7577, 7570, 7569, 7576
4097, 7550, 7543, 7542, 7549, 7571, 7564, 7563, 7570
4098, 7557, 7550, 7549, 7556, 7578, 7571, 7570, 7577
4099, 7551, 7544, 7543, 7550, 7572, 7565, 7564, 7571
4100, 7558, 7551, 7550, 7557, 7579, 7572, 7571, 7578
4101, 7552, 7545, 7544, 7551, 7573, 7566, 7565, 7572
4102, 7559, 7552, 7551, 7558, 7580, 7573, 7572, 7579
4103, 7553, 7546, 7545, 7552, 7574, 7567, 7566, 7573
4104, 7560, 7553, 7552, 7559, 7581, 7574, 7573, 7580
4105, 7590, 7583, 7582, 7589, 7611, 7604, 7603, 7610
4106, 7597, 7590, 7589, 7596, 7618, 7611, 7610, 7617
4107, 7591, 7584, 7583, 7590, 7612, 7605, 7604, 7611
4108, 7598, 7591, 7590, 7597, 7619, 7612, 7611, 7618
4109, 7592, 7585, 7584, 7591, 7613, 7606, 7605, 7612
4110, 7599, 7592, 7591, 7598, 7620, 7613, 7612, 7619
4111, 7593, 7586, 7585, 7592, 7614, 7607, 7606, 7613
4112, 7600, 7593, 7592, 7599, 7621, 7614, 7613, 7620
4113, 7594, 7587, 7586, 7593, 7615, 7608, 7607, 7614
4114, 7601, 7594, 7593, 7600, 7622, 7615, 7614, 7621
4115, 7595, 7588, 7587, 7594, 7616, 7609, 7608, 7615
4116, 7602, 7595, 7594, 7601, 7623, 7616, 7615, 7622
4117, 7611, 7604, 7603, 7610, 7632, 7625, 7624, 7631
4118, 7618, 7611, 7610, 7617, 7639, 7632, 7631, 7638
4119, 7612, 7605, 7604, 7611, 7633, 7626, 7625, 7632
4120, 7619, 7612, 7611, 7618, 7640, 7633, 7632, 7639
4121, 7613, 7606, 7605, 7612, 7634, 7627, 7626, 7633
4122, 7620, 7613, 7612, 7619, 7641, 7634, 7633, 7640
4123, 7614, 7607, 7606, 7613, 7635, 7628, 7627, 7634
4124, 7621, 7614, 7613, 7620, 7642, 7635, 7634, 7641
4125, 7615, 7608, 7607, 7614, 7636, 7629, 7628, 7635
4126, 7622, 7615, 7614, 7621, 7643, 7636, 7635, 7642
4127, 7616, 7609, 7608, 7615, 7637, 7630, 7629, 7636
4128, 7623, 7616, 7615, 7622, 7644, 7637, 7636, 7643
4129, 7632, 7625, 7624, 7631, 7653, 7646, 7645, 7652
4130, 7639, 7632, 7631, 7638, 7660, 7653, 7652, 7659
4131, 7633, 7626, 7625, 7632, 7654, 7647, 7646, 7653
4132, 7640, 7633, 7632, 7639, 7661, 7654, 7653, 7660
4133, 7634, 7627, 7626, 7633, 7655, 7648, 7647, 7654
4134, 7641, 7634, 7633, 7640, 7662, 7655, 7654, 7661
4135, 7635, 7628, 7627, 7634, 7656, 7649, 7648, 7655
4136, 7642, 7635, 7634, 7641, 7663, 7656, 7655, 7662
4137, 7636, 7629, 7628, 7635, 7657, 7650, 7649, 7656
4138, 7643, 7636, 7635, 7642, 7664, 7657, 7656, 7663
4139, 7637, 7630, 7629, 7636, 7658, 7651, 7650, 7657
4140, 7644, 7637, 7636, 7643, 7665, 7658, 7657, 7664
4141, 7653, 7646, 7645, 7652, 7674, 7667, 7666, 7673
4142, 7660, 7653, 7652, 7659, 7681, 7674, 7673, 7680
4143, 7654, 7647, 7646, 7653, 7675, 7668, 7667, 7674
4144, 7661, 7654, 7653, 7660, 7682, 7675, 7674, 7681
4145, 7655, 7648, 7647, 7654, 7676, 7669, 7668, 7675
4146, 7662, 7655, 7654, 7661, 7683, 7676, 7675, 7682
4147, 7656, 7649, 7648, 7655, 7677, 7670, 7669, 7676
4148, 7663, 7656, 7655, 7662, 7684, 7677, 7676, 7683
4149, 7657, 7650, 7649, 7656, 7678, 7671, 7670, 7677
4150, 7664, 7657, 7656, 7663, 7685, 7678, 7677, 7684
4151, 7658, 7651, 7650, 7657, 7679, 7672, 7671, 7678
4152, 7665, 7658, 7657, 7664, 7686, 7679, 7678, 7685
4153, 7674, 7667, 7666, 7673, 7695, 7688, 7687, 7694
4154, 7681, 7674, 7673, 7680, 7702, 7695, 7694, 7701
4155, 7675, 7668, 7667, 7674, 7696, 7689, 7688, 7695
4156, 7682, 7675, 7674, 7681, 7703, 7696, 7695, 7702
4157, 7676, 7669, 7668, 7675, 7697, 7690, 7689, 7696
4158, 7683, 7676, 7675, 7682, 7704, 7697, 7696, 7703
4159, 7677, 7670, 7669, 7676, 7698, 7691, 7690, 7697
4160, 7684, 7677, 7676, 7683, 7705, 7698, 7697, 7704
4161, 7678, 7671, 7670, 7677, 7699, 7692, 7691, 7698
4162, 7685, 7678, 7677, 7684, 7706, 7699, 7698, 7705
4163, 7679, 7672, 7671, 7678, 7700, 7693, 7692, 7699
4164, 7686, 7679, 7678, 7685, 7707, 7700, 7699, 7706
4165, 7695, 7688, 7687, 7694, 7716, 7709, 7708, 7715
4166, 7702, 7695, 7694, 7701, 7723, 7716, 7715, 7722
4167, 7696, 7689, 7688, 7695, 7717, 7710, 7709, 7716
4168, 7703, 7696, 7695, 7702, 7724, 7717, 7716, 7723
4169, 7697, 7690, 7689, 7696, 7718, 7711, 7710, 7717
4170, 7704, 7697, 7696, 7703, 7725, 7718, 7717, 7724
4171, 7698, 7691, 7690, 7697, 7719, 7712, 7711, 7718
4172, 7705, 7698, 7697, 7704, 7726, 7719, 7718, 7725
4173, 7699, 7692, 7691, 7698, 7720, 7713, 7712, 7719
4174, 7706, 7699, 7698, 7705, 7727, 7720, 7719, 7726
4175, 7700, 7693, 7692, 7699, 7721, 7714, 7713, 7720
4176, 7707, 7700, 7699, 7706, 7728, 7721, 7720, 7727
4177, 7716, 7709, 7708, 7715, 7737, 7730, 7729, 7736
4178, 7723, 7716, 7715, 7722, 7744, 7737, 7736, 7743
4179, 7717, 7710, 7709, 7716, 7738, 7731, 7730, 7737
4180, 7724, 7717, 7716, 7723, 7745, 7738, 7737, 7744
4181, 7718, 7711, 7710, 7717, 7739, 7732, 7731, 7738
4182, 7725, 7718, 7717, 7724, 7746, 7739, 7738, 7745
4183, 7719, 7712, 7711, 7718, 7740, 7733, 7732, 7739
4184, 7726, 7719, 7718, 7725, 7747, 7740, 7739, 7746
4185, 7720, 7713, 7712, 7719, 7741, 7734, 7733, 7740
4186, 7727, 7720, 7719, 7726, 7748, 7741, 7740, 7747
4187, 7721, 7714, 7713, 7720, 7742, 7735, 7734, 7741
4188, 7728, 7721, 7720, 7727, 7749, 7742, 7741, 7748
4189, 7737, 7730, 7729, 7736, 7758, 7751, 7750, 7757
4190, 7744, 7737, 7736, 7743, 7765, 7758, 7757, 7764
4191, 7738, 7731, 7730, 7737, 7759, 7752, 7751, 7758
4192, 7745, 7738, 7737, 7744, 7766, 7759, 7758, 7765
4193, 7739, 7732, 7731, 7738, 7760, 7753, 7752, 7759
4194, 7746, 7739, 7738, 7745, 7767, 7760, 7759, 7766
4195, 7740, 7733, 7732, 7739, 7761, 7754, 7753, 7760
4196, 7747, 7740, 7739, 7746, 7768, 7761, 7760, 7767
4197, 7741, 7734, 7733, 7740, 7762, 7755, 7754, 7761
4198, 7748, 7741, 7740, 7747, 7769, 7762, 7761, 7768
4199, 7742, 7735, 7734, 7741, 7763, 7756, 7755, 7762
4200, 7749, 7742, 7741, 7748, 7770, 7763, 7762, 7769
4201, 7758, 7751, 7750, 7757, 7779, 7772, 7771, 7778
4202, 7765, 7758, 7757, 7764, 7786, 7779, 7778, 7785
4203, 7759, 7752, 7751, 7758, 7780, 7773, 7772, 7779
4204, 7766, 7759, 7758, 7765, 7787, 7780, 7779, 7786
4205, 7760, 7753, 7752, 7759, 7781, 7774, 7773, 7780
4206, 7767, 7760, 7759, 7766, 7788, 7781, 7780, 7787
4207, 7761, 7754, 7753, 7760, 7782, 7775, 7774, 7781
4208, 7768, 7761, 7760, 7767, 7789, 7782, 7781, 7788
4209, 7762, 7755, 7754, 7761, 7783, 7776, 7775, 7782
4210, 7769, 7762, 7761, 7768, 7790, 7783, 7782, 7789
4211, 7763, 7756, 7755, 7762, 7784, 7777, 7776, 7783
4212, 7770, 7763, 7762, 7769, 7791, 7784, 7783, 7790
4213, 7779, 7772, 7771, 7778, 7800, 7793, 7792, 7799
4214, 7786, 7779, 7778, 7785, 7807, 7800, 7799, 7806
4215, 7780, 7773, 7772, 7779, 7801, 7794, 7793, 7800
4216, 7787, 7780, 7779, 7786, 7808, 7801, 7800, 7807
4217, 7781, 7774, 7773, 7780, 7802, 7795, 7794, 7801
4218, 7788, 7781, 7780, 7787, 7809, 7802, 7801, 7808
4219, 7782, 7775, 7774, 7781, 7803, 7796, 7795, 7802
4220, 7789, 7782, 7781, 7788, 7810, 7803, 7802, 7809
4221, 7783, 7776, 7775, 7782, 7804, 7797, 7796, 7803
4222, 7790, 7783, 7782, 7789, 7811, 7804, 7803, 7810
4223, 7784, 7777, 7776, 7783, 7805, 7798, 7797, 7804
4224, 7791, 7784, 7783, 7790, 7812, 7805, 7804, 7811
4225, 7800, 7793, 7792, 7799, 7821, 7814, 7813, 7820
4226, 7807, 7800, 7799, 7806, 7828, 7821, 7820, 7827
4227, 7801, 7794, 7793, 7800, 7822, 7815, 7814, 7821
4228, 7808, 7801, 7800, 7807, 7829, 7822, 7821, 7828
4229, 7802, 7795, 7794, 7801, 7823, 7816, 7815, 7822
4230, 7809, 7802, 7801, 7808, 7830, 7823, 7822, 7829
4231, 7803, 7796, 7795, 7802, 7824, 7817, 7816, 7823
4232, 7810, 7803, 7802, 7809, 7831, 7824, 7823, 7830
4233, 7804, 7797, 7796, 7803, 7825, 7818, 7817, 7824
4234, 7811, 7804, 7803, 7810, 7832, 7825, 7824, 7831
4235, 7805, 7798, 7797, 7804, 7826, 7819, 7818, 7825
4236, 7812, 7805, 7804, 7811, 7833, 7826, 7825, 7832
4237, 7821, 7814, 7813, 7820, 7842, 7835, 7834, 7841
4238, 7828, 7821, 7820, 7827, 7849, 7842, 7841, 7848
4239, 7822, 7815, 7814, 7821, 7843, 7836, 7835, 7842
4240, 7829, 7822, 7821, 7828, 7850, 7843, 7842, 7849
4241, 7823, 7816, 7815, 7822, 7844, 7837, 7836, 7843
4242, 7830, 7823, 7822, 7829, 7851, 7844, 7843, 7850
4243, 7824, 7817, 7816, 7823, 7845, 7838, 7837, 7844
4244, 7831, 7824, 7823, 7830, 7852, 7845, 7844, 7851
4245, 7825, 7818, 7817, 7824, 7846, 7839, 7838, 7845
4246, 7832, 7825, 7824, 7831, 7853, 7846, 7845, 7852
4247, 7826, 7819, 7818, 7825, 7847, 7840, 7839, 7846
4248, 7833, 7826, 7825, 7832, 7854, 7847, 7846, 7853
4249, 7842, 7835, 7834, 7841, 7863, 7856, 7855, 7862
4250, 7849, 7842, 7841, 7848, 7870, 7863, 7862, 7869
4251, 7843, 7836, 7835, 7842, 7864, 7857, 7856, 7863
4252, 7850, 7843, 7842, 7849, 7871, 7864, 7863, 7870
4253, 7844, 7837, 7836, 7843, 7865, 7858, 7857, 7864
4254, 7851, 7844, 7843, 7850, 7872, 7865, 7864, 7871
4255, 7845, 7838, 7837, 7844, 7866, 7859, 7858, 7865
4256, 7852, 7845, 7844, 7851, 7873, 7866, 7865, 7872
4257, 7846, 7839, 7838, 7845, 7867, 7860, 7859, 7866
4258, 7853, 7846, 7845, 7852, 7874, 7867, 7866, 7873
4259, 7847, 7840, 7839, 7846, 7868, 7861, 7860, 7867
4260, 7854, 7847, 7846, 7853, 7875, 7868, 7867, 7874
4261, 7863, 7856, 7855, 7862, 7884, 7877, 7876, 7883
4262, 7870, 7863, 7862, 7869, 7891, 7884, 7883, 7890
4263, 7864, 7857, 7856, 7863, 7885, 7878, 7877, 7884
4264, 7871, 7864, 7863, 7870, 7892, 7885, 7884, 7891
4265, 7865, 7858, 7857, 7864, 7886, 7879, 7878, 7885
4266, 7872, 7865, 7864, 7871, 7893, 7886, 7885, 7892
4267, 7866, 7859, 7858, 7865, 7887, 7880, 7879, 7886
4268, 7873, 7866, 7865, 7872, 7894, 7887, 7886, 7893
4269, 7867, 7860, 7859, 7866, 7888, 7881, 7880, 7887
4270, 7874, 7867, 7866, 7873, 7895, 7888, 7887, 7894
4271, 7868, 7861, 7860, 7867, 7889, 7882, 7881, 7888
4272, 7875, 7868, 7867, 7874, 7896, 7889, 7888, 7895
4273, 7884, 7877, 7876, 7883, 7905, 7898, 7897, 7904
4274, 7891, 7884, 7883, 7890, 7912, 7905, 7904, 7911
4275, 7885, 7878, 7877, 7884, 7906, 7899, 7898, 7905
4276, 7892, 7885, 7884, 7891, 7913, 7906, 7905, 7912
4277, 7886, 7879, 7878, 7885, 7907, 7900, 7899, 7906
4278, 7893, 7886, 7885, 7892, 7914, 7907, 7906, 7913
4279, 7887, 7880, 7879, 7886, 7908, 7901, 7900, 7907
4280, 7894, 7887, 7886, 7893, 7915, 7908, 7907, 7914
4281, 7888, 7881, 7880, 7887, 7909, 7902, 7901, 7908
4282, 7895, 7888, 7887, 7894, 7916, 7909, 7908, 7915
4283, 7889, 7882, 7881, 7888, 7910, 7903, 7902, 7909
4284, 7896, 7889, 7888, 7895, 7917, 7910, 7909, 7916
4285, 7905, 7898, 7897, 7904, 7926, 7919, 7918, 7925
4286, 7912, 7905, 7904, 7911, 7933, 7926, 7925, 7932
4287, 7906, 7899, 7898, 7905, 7927, 7920, 7919, 7926
4288, 7913, 7906, 7905, 7912, 7934, 7927, 7926, 7933
4289, 7907, 7900, 7899, 7906, 7928, 7921, 7920, 7927
4290, 7914, 7907, 7906, 7913, 7935, 7928, 7927, 7934
4291, 7908, 7901, 7900, 7907, 7929, 7922, 7921, 7928
4292, 7915, 7908, 7907, 7914, 7936, 7929, 7928, 7935
4293, 7909, 7902, 7901, 7908, 7930, 7923, 7922, 7929
4294, 7916, 7909, 7908, 7915, 7937, 7930, 7929, 7936
4295, 7910, 7903, 7902, 7909, 7931, 7924, 7923, 7930
4296, 7917, 7910, 7909, 7916, 7938, 7931, 7930, 7937
4297, 7926, 7919, 7918, 7925, 7947, 7940, 7939, 7946
4298, 7933, 7926, 7925, 7932, 7954, 7947, 7946, 7953
4299, 7927, 7920, 7919, 7926, 7948, 7941, 7940, 7947
4300, 7934, 7927, 7926, 7933, 7955, 7948, 7947, 7954
4301, 7928, 7921, 7920, 7927, 7949, 7942, 7941, 7948
4302, 7935, 7928, 7927, 7934, 7956, 7949, 7948, 7955
4303, 7929, 7922, 7921, 7928, 7950, 7943, 7942, 7949
4304, 7936, 7929, 7928, 7935, 7957, 7950, 7949, 7956
4305, 7930, 7923, 7922, 7929, 7951, 7944, 7943, 7950
4306, 7937, 7930, 7929, 7936, 7958, 7951, 7950, 7957
4307, 7931, 7924, 7923, 7930, 7952, 7945, 7944, 7951
4308, 7938, 7931, 7930, 7937, 7959, 7952, 7951, 7958
4309, 7947, 7940, 7939, 7946, 7968, 7961, 7960, 7967
4310, 7954, 7947, 7946, 7953, 7975, 7968, 7967, 7974
4311, 7948, 7941, 7940, 7947, 7969, 7962, 7961, 7968
4312, 7955, 7948, 7947, 7954, 7976, 7969, 7968, 7975
4313, 7949, 7942, 7941, 7948, 7970, 7963, 7962, 7969
4314, 7956, 7949, 7948, 7955, 7977, 7970, 7969, 7976
4315, 7950, 7943, 7942, 7949, 7971, 7964, 7963, 7970
4316, 7957, 7950, 7949, 7956, 7978, 7971, 7970, 7977
4317, 7951, 7944, 7943, 7950, 7972, 7965, 7964, 7971
4318, 7958, 7951, 7950, 7957, 7979, 7972, 7971, 7978
4319, 7952, 7945, 7944, 7951, 7973, 7966, 7965, 7972
4320, 7959, 7952, 7951, 7958, 7980, 7973, 7972, 7979
*ELSET, ELSET=WARP_XMIN
1, 2, 13, 14, 25, 26, 37, 38, 49, 50, 61, 62, 73, 74, 85, 86
97, 98, 109, 110, 121, 122, 133, 134, 145, 146, 157, 158, 169, 170, 181, 182
193, 194, 205, 206, 217, 218, 229, 230, 241, 242, 253, 254, 265, 266, 277, 278
289, 290, 301, 302, 313, 314, 325, 326, 337, 338, 349, 350, 361, 362, 373, 374
385, 386, 397, 398, 409, 410, 421, 422
*ELSET, ELSET=WARP_XMAX
1739, 1740, 1751, 1752, 1763, 1764, 1775, 1776, 1787, 1788, 1799, 1800, 1811, 1812, 1823, 1824
1835, 1836, 1847, 1848, 1859, 1860, 1871, 1872, 1883, 1884, 1895, 1896, 1907, 1908, 1919, 1920
1931, 1932, 1943, 1944, 1955, 1956, 1967, 1968, 1979, 1980, 1991, 1992, 2003, 2004, 2015, 2016
2027, 2028, 2039, 2040, 2051, 2052, 2063, 2064, 2075, 2076, 2087, 2088, 2099, 2100, 2111, 2112
2123, 2124, 2135, 2136, 2147, 2148, 2159, 2160
*ELSET, ELSET=WARP_YMIN
534, 536, 546, 548, 750, 752, 762, 764, 1398, 1400, 1410, 1412, 1614, 1616, 1626, 1628
*ELSET, ELSET=WARP_YMAX
101, 103, 113, 115, 317, 319, 329, 331, 965, 967, 977, 979, 1181, 1183, 1193, 1195
1829, 1831, 1841, 1843, 2045, 2047, 2057, 2059
*ELSET, ELSET=WARP_ZMIN
5, 7, 438, 440, 869, 871, 1302, 1304, 1733, 1735
*ELSET, ELSET=WARP_ZMAX
425, 427, 858, 860, 1289, 1291, 1722, 1724, 2153, 2155
*ELSET, ELSET=WEFT_XMIN
2166, 2168, 2597, 2599, 3030, 3032, 3461, 3463, 3894, 3896
*ELSET, ELSET=WEFT_XMAX
2586, 2588, 3017, 3019, 3450, 3452, 3881, 3883, 4314, 4316
*ELSET, ELSET=WEFT_YMIN
2262, 2264, 2274, 2276, 2478, 2480, 2490, 2492, 3126, 3128, 3138, 3140, 3342, 3344, 3354, 3356
3990, 3992, 4002, 4004, 4206, 4208, 4218, 4220
*ELSET, ELSET=WEFT_YMAX
2693, 2695, 2705, 2707, 2909, 2911, 2921, 2923, 3557, 3559, 3569, 3571, 3773, 3775, 3785, 3787
*ELSET, ELSET=WEFT_ZMIN
2171, 2172, 2183, 2184, 2195, 2196, 2207, 2208, 2219, 2220, 2231, 2232, 2243, 2244, 2255, 2256
2267, 2268, 2279, 2280, 2291, 2292, 2303, 2304, 2315, 2316, 2327, 2328, 2339, 2340, 2351, 2352
2363, 2364, 2375, 2376, 2387, 2388, 2399, 2400, 2411, 2412, 2423, 2424, 2435, 2436, 2447, 2448
2459, 2460, 2471, 2472, 2483, 2484, 2495, 2496, 2507, 2508, 2519, 2520, 2531, 2532, 2543, 2544
2555, 2556, 2567, 2568, 2579, 2580, 2591, 2592
*ELSET, ELSET=WEFT_ZMAX
3889, 3890, 3901, 3902, 3913, 3914, 3925, 3926, 3937, 3938, 3949, 3950, 3961, 3962, 3973, 3974
3985, 3986, 3997, 3998, 4009, 4010, 4021, 4022, 4033, 4034, 4045, 4046, 4057, 4058, 4069, 4070
4081, 4082, 4093, 4094, 4105, 4106, 4117, 4118, 4129, 4130, 4141, 4142, 4153, 4154, 4165, 4166
4177, 4178, 4189, 4190, 4201, 4202, 4213, 4214, 4225, 4226, 4237, 4238, 4249, 4250, 4261, 4262
4273, 4274, 4285, 4286, 4297, 4298, 4309, 4310
*ELSET, ELSET=WARP_SEGMENT_0
1, 2, 3, 4, 5, 6, 7, 8, 9, 10, 11, 12, 13, 14, 15, 16
17, 18, 19, 20, 21, 22, 23, 24, 25, 26, 27, 28, 29, 30, 31, 32
33, 34, 35, 36, 37, 38, 39, 40, 41, 42, 43, 44, 45, 46, 47, 48
49, 50, 51, 52, 53, 54, 55, 56, 57, 58, 59, 60, 61, 62, 63, 64
65, 66, 67, 68, 69, 70, 71, 72, 73, 74, 75, 76, 77, 78, 79, 80
81, 82, 83, 84, 85, 86, 87, 88, 89, 90, 91, 92, 93, 94, 95, 96
97, 98, 99, 100, 101, 102, 103, 104, 105, 106, 107, 108, 109, 110, 111, 112
113, 114, 115, 116, 117, 118, 119, 120, 121, 122, 123, 124, 125, 126, 127, 128
129, 130, 131, 132, 133, 134, 135, 136, 137, 138, 139, 140, 141, 142, 143, 144
145, 146, 147, 148, 149, 150, 151, 152, 153, 154, 155, 156, 157, 158, 159, 160
161, 162, 163, 164, 165, 166, 167, 168, 169, 170, 171, 172, 173, 174, 175, 176
177, 178, 179, 180, 181, 182, 183, 184, 185, 186, 187, 188, 189, 190, 191, 192
193, 194, 195, 196, 197, 198, 199, 200, 201, 202, 203, 204, 205, 206, 207, 208
209, 210, 211, 212, 213, 214, 215, 216
*ELSET, ELSET=WARP_SEGMENT_1
217, 218, 219, 220, 221, 222, 223, 224, 225, 226, 227, 228, 229, 230, 231, 232
233, 234, 235, 236, 237, 238, 239, 240, 241, 242, 243, 244, 245, 246, 247, 248
249, 250, 251, 252, 253, 254, 255, 256, 257, 258, 259, 260, 261, 262, 263, 264
265, 266, 267, 268, 269, 270, 271, 272, 273, 274, 275, 276, 277, 278, 279, 280
281, 282, 283, 284, 285, 286, 287, 288, 289, 290, 291, 292, 293, 294, 295, 296
297, 298, 299, 300, 301, 302, 303, 304, 305, 306, 307, 308, 309, 310, 311, 312
313, 314, 315, 316, 317, 318, 319, 320, 321, 322, 323, 324, 325, 326, 327, 328
329, 330, 331, 332, 333, 334, 335, 336, 337, 338, 339, 340, 341, 342, 343, 344
345, 346, 347, 348, 349, 350, 351, 352, 353, 354, 355, 356, 357, 358, 359, 360
361, 362, 363, 364, 365, 366, 367, 368, 369, 370, 371, 372, 373, 374, 375, 376
377, 378, 379, 380, 381, 382, 383, 384, 385, 386, 387, 388, 389, 390, 391, 392
393, 394, 395, 396, 397, 398, 399, 400, 401, 402, 403, 404, 405, 406, 407, 408
409, 410, 411, 412, 413, 414, 415, 416, 417, 418, 419, 420, 421, 422, 423, 424
425, 426, 427, 428, 429, 430, 431, 432
*ELSET, ELSET=WARP_SEGMENT_2
433, 434, 435, 436, 437, 438, 439, 440, 441, 442, 443, 444, 445, 446, 447, 448
449, 450, 451, 452, 453, 454, 455, 456, 457, 458, 459, 460, 461, 462, 463, 464
465, 466, 467, 468, 469, 470, 471, 472, 473, 474, 475, 476, 477, 478, 479, 480
481, 482, 483, 484, 485, 486, 487, 488, 489, 490, 491, 492, 493, 494, 495, 496
497, 498, 499, 500, 501, 502, 503, 504, 505, 506, 507, 508, 509, 510, 511, 512
513, 514, 515, 516, 517, 518, 519, 520, 521, 522, 523, 524, 525, 526, 527, 528
529, 530, 531, 532, 533, 534, 535, 536, 537, 538, 539, 540, 541, 542, 543, 544
545, 546, 547, 548, 549, 550, 551, 552, 553, 554, 555, 556, 557, 558, 559, 560
561, 562, 563, 564, 565, 566, 567, 568, 569, 570, 571, 572, 573, 574, 575, 576
577, 578, 579, 580, 581, 582, 583, 584, 585, 586, 587, 588, 589, 590, 591, 592
593, 594, 595, 596, 597, 598, 599, 600, 601, 602, 603, 604, 605, 606, 607, 608
609, 610, 611, 612, 613, 614, 615, 616, 617, 618, 619, 620, 621, 622, 623, 624
625, 626, 627, 628, 629, 630, 631, 632, 633, 634, 635, 636, 637, 638, 639, 640
641, 642, 643, 644, 645, 646, 647, 648
*ELSET, ELSET=WARP_SEGMENT_3
649, 650, 651, 652, 653, 654, 655, 656, 657, 658, 659, 660, 661, 662, 663, 664
665, 666, 667, 668, 669, 670, 671, 672, 673, 674, 675, 676, 677, 678, 679, 680
681, 682, 683, 684, 685, 686, 687, 688, 689, 690, 691, 692, 693, 694, 695, 696
697, 698, 699, 700, 701, 702, 703, 704, 705, 706, 707, 708, 709, 710, 711, 712
713, 714, 715, 716, 717, 718, 719, 720, 721, 722, 723, 724, 725, 726, 727, 728
729, 730, 731, 732, 733, 734, 735, 736, 737, 738, 739, 740, 741, 742, 743, 744
745, 746, 747, 748, 749, 750, 751, 752, 753, 754, 755, 756, 757, 758, 759, 760
761, 762, 763, 764, 765, 766, 767, 768, 769, 770, 771, 772, 773, 774, 775, 776
777, 778, 779, 780, 781, 782, 783, 784, 785, 786, 787, 788, 789, 790, 791, 792
793, 794, 795, 796, 797, 798, 799, 800, 801, 802, 803, 804, 805, 806, 807, 808
809, 810, 811, 812, 813, 814, 815, 816, 817, 818, 819, 820, 821, 822, 823, 824
825, 826, 827, 828, 829, 830, 831, 832, 833, 834, 835, 836, 837, 838, 839, 840
841, 842, 843, 844, 845, 846, 847, 848, 849, 850, 851, 852, 853, 854, 855, 856
857, 858, 859, 860, 861, 862, 863, 864
*ELSET, ELSET=WARP_SEGMENT_4
865, 866, 867, 868, 869, 870, 871, 872, 873, 874, 875, 876, 877, 878, 879, 880
881, 882, 883, 884, 885, 886, 887, 888, 889, 890, 891, 892, 893, 894, 895, 896
897, 898, 899, 900, 901, 902, 903, 904, 905, 906, 907, 908, 909, 910, 911, 912
913, 914, 915, 916, 917, 918, 919, 920, 921, 922, 923, 924, 925, 926, 927, 928
929, 930, 931, 932, 933, 934, 935, 936, 937, 938, 939, 940, 941, 942, 943, 944
945, 946, 947, 948, 949, 950, 951, 952, 953, 954, 955, 956, 957, 958, 959, 960
961, 962, 963, 964, 965, 966, 967, 968, 969, 970, 971, 972, 973, 974, 975, 976
977, 978, 979, 980, 981, 982, 983, 984, 985, 986, 987, 988, 989, 990, 991, 992
993, 994, 995, 996, 997, 998, 999, 1000, 1001, 1002, 1003, 1004, 1005, 1006, 1007, 1008
1009, 1010, 1011, 1012, 1013, 1014, 1015, 1016, 1017, 1018, 1019, 1020, 1021, 1022, 1023, 1024
1025, 1026, 1027, 1028, 1029, 1030, 1031, 1032, 1033, 1034, 1035, 1036, 1037, 1038, 1039, 1040
1041, 1042, 1043, 1044, 1045, 1046, 1047, 1048, 1049, 1050, 1051, 1052, 1053, 1054, 1055, 1056
1057, 1058, 1059, 1060, 1061, 1062, 1063, 1064, 1065, 1066, 1067, 1068, 1069, 1070, 1071, 1072
1073, 1074, 1075, 1076, 1077, 1078, 1079, 1080
*ELSET, ELSET=WARP_SEGMENT_5
1081, 1082, 1083, 1084, 1085, 1086, 1087, 1088, 1089, 1090, 1091, 1092, 1093, 1094, 1095, 1096
1097, 1098, 1099, 1100, 1101, 1102, 1103, 1104, 1105, 1106, 1107, 1108, 1109, 1110, 1111, 1112
1113, 1114, 1115, 1116, 1117, 1118, 1119, 1120, 1121, 1122, 1123, 1124, 1125, 1126, 1127, 1128
1129, 1130, 1131, 1132, 1133, 1134, 1135, 1136, 1137, 1138, 1139, 1140, 1141, 1142, 1143, 1144
1145, 1146, 1147, 1148, 1149, 1150, 1151, 1152, 1153, 1154, 1155, 1156, 1157, 1158, 1159, 1160
1161, 1162, 1163, 1164, 1165, 1166, 1167, 1168, 1169, 1170, 1171, 1172, 1173, 1174, 1175, 1176
1177, 1178, 1179, 1180, 1181, 1182, 1183, 1184, 1185, 1186, 1187, 1188, 1189, 1190, 1191, 1192
1193, 1194, 1195, 1196, 1197, 1198, 1199, 1200, 1201, 1202, 1203, 1204, 1205, 1206, 1207, 1208
1209, 1210, 1211, 1212, 1213, 1214, 1215, 1216, 1217, 1218, 1219, 1220, 1221, 1222, 1223, 1224
1225, 1226, 1227, 1228, 1229, 1230, 1231, 1232, 1233, 1234, 1235, 1236, 1237, 1238, 1239, 1240
1241, 1242, 1243, 1244, 1245, 1246, 1247, 1248, 1249, 1250, 1251, 1252, 1253, 1254, 1255, 1256
1257, 1258, 1259, 1260, 1261, 1262, 1263, 1264, 1265, 1266, 1267, 1268, 1269, 1270, 1271, 1272
1273, 1274, 1275, 1276, 1277, 1278, 1279, 1280, 1281, 1282, 1283, 1284, 1285, 1286, 1287, 1288
1289, 1290, 1291, 1292, 1293, 1294, 1295, 1296
*ELSET, ELSET=WARP_SEGMENT_6
1297, 1298, 1299, 1300, 1301, 1302, 1303, 1304, 1305, 1306, 1307, 1308, 1309, 1310, 1311, 1312
1313, 1314, 1315, 1316, 1317, 1318, 1319, 1320, 1321, 1322, 1323, 1324, 1325, 1326, 1327, 1328
1329, 1330, 1331, 1332, 1333, 1334, 1335, 1336, 1337, 1338, 1339, 1340, 1341, 1342, 1343, 1344
1345, 1346, 1347, 1348, 1349, 1350, 1351, 1352, 1353, 1354, 1355, 1356, 1357, 1358, 1359, 1360
1361, 1362, 1363, 1364, 1365, 1366, 1367, 1368, 1369, 1370, 1371, 1372, 1373, 1374, 1375, 1376
1377, 1378, 1379, 1380, 1381, 1382, 1383, 1384, 1385, 1386, 1387, 1388, 1389, 1390, 1391, 1392
1393, 1394, 1395, 1396, 1397, 1398, 1399, 1400, 1401, 1402, 1403, 1404, 1405, 1406, 1407, 1408
1409, 1410, 1411, 1412, 1413, 1414, 1415, 1416, 1417, 1418, 1419, 1420, 1421, 1422, 1423, 1424
1425, 1426, 1427, 1428, 1429, 1430, 1431, 1432, 1433, 1434, 1435, 1436, 1437, 1438, 1439, 1440
1441, 1442, 1443, 1444, 1445, 1446, 1447, 1448, 1449, 1450, 1451, 1452, 1453, 1454, 1455, 1456
1457, 1458, 1459, 1460, 1461, 1462, 1463, 1464, 1465, 1466, 1467, 1468, 1469, 1470, 1471, 1472
1473, 1474, 1475, 1476, 1477, 1478, 1479, 1480, 1481, 1482, 1483, 1484, 1485, 1486, 1487, 1488
1489, 1490, 1491, 1492, 1493, 1494, 1495, 1496, 1497, 1498, 1499, 1500, 1501, 1502, 1503, 1504
1505, 1506, 1507, 1508, 1509, 1510, 1511, 1512
*ELSET, ELSET=WARP_SEGMENT_7
1513, 1514, 1515, 1516, 1517, 1518, 1519, 1520, 1521, 1522, 1523, 1524, 1525, 1526, 1527, 1528
1529, 1530, 1531, 1532, 1533, 1534, 1535, 1536, 1537, 1538, 1539, 1540, 1541, 1542, 1543, 1544
1545, 1546, 1547, 1548, 1549, 1550, 1551, 1552, 1553, 1554, 1555, 1556, 1557, 1558, 1559, 1560
1561, 1562, 1563, 1564, 1565, 1566, 1567, 1568, 1569, 1570, 1571, 1572, 1573, 1574, 1575, 1576
1577, 1578, 1579, 1580, 1581, 1582, 1583, 1584, 1585, 1586, 1587, 1588, 1589, 1590, 1591, 1592
1593, 1594, 1595, 1596, 1597, 1598, 1599, 1600, 1601, 1602, 1603, 1604, 1605, 1606, 1607, 1608
1609, 1610, 1611, 1612, 1613, 1614, 1615, 1616, 1617, 1618, 1619, 1620, 1621, 1622, 1623, 1624
1625, 1626, 1627, 1628, 1629, 1630, 1631, 1632, 1633, 1634, 1635, 1636, 1637, 1638, 1639, 1640
1641, 1642, 1643, 1644, 1645, 1646, 1647, 1648, 1649, 1650, 1651, 1652, 1653, 1654, 1655, 1656
1657, 1658, 1659, 1660, 1661, 1662, 1663, 1664, 1665, 1666, 1667, 1668, 1669, 1670, 1671, 1672
1673, 1674, 1675, 1676, 1677, 1678, 1679, 1680, 1681, 1682, 1683, 1684, 1685, 1686, 1687, 1688
1689, 1690, 1691, 1692, 1693, 1694, 1695, 1696, 1697, 1698, 1699, 1700, 1701, 1702, 1703, 1704
1705, 1706, 1707, 1708, 1709, 1710, 1711, 1712, 1713, 1714, 1715, 1716, 1717, 1718, 1719, 1720
1721, 1722, 1723, 1724, 1725, 1726, 1727, 1728
*ELSET, ELSET=WARP_SEGMENT_8
1729, 1730, 1731, 1732, 1733, 1734, 1735, 1736, 1737, 1738, 1739, 1740, 1741, 1742, 1743, 1744
1745, 1746, 1747, 1748, 1749, 1750, 1751, 1752, 1753, 1754, 1755, 1756, 1757, 1758, 1759, 1760
1761, 1762, 1763, 1764, 1765, 1766, 1767, 1768, 1769, 1770, 1771, 1772, 1773, 1774, 1775, 1776
1777, 1778, 1779, 1780, 1781, 1782, 1783, 1784, 1785, 1786, 1787, 1788, 1789, 1790, 1791, 1792
1793, 1794, 1795, 1796, 1797, 1798, 1799, 1800, 1801, 1802, 1803, 1804, 1805, 1806, 1807, 1808
1809, 1810, 1811, 1812, 1813, 1814, 1815, 1816, 1817, 1818, 1819, 1820, 1821, 1822, 1823, 1824
1825, 1826, 1827, 1828, 1829, 1830, 1831, 1832, 1833, 1834, 1835, 1836, 1837, 1838, 1839, 1840
1841, 1842, 1843, 1844, 1845, 1846, 1847, 1848, 1849, 1850, 1851, 1852, 1853, 1854, 1855, 1856
1857, 1858, 1859, 1860, 1861, 1862, 1863, 1864, 1865, 1866, 1867, 1868, 1869, 1870, 1871, 1872
1873, 1874, 1875, 1876, 1877, 1878, 1879, 1880, 1881, 1882, 1883, 1884, 1885, 1886, 1887, 1888
1889, 1890, 1891, 1892, 1893, 1894, 1895, 1896, 1897, 1898, 1899, 1900, 1901, 1902, 1903, 1904
1905, 1906, 1907, 1908, 1909, 1910, 1911, 1912, 1913, 1914, 1915, 1916, 1917, 1918, 1919, 1920
1921, 1922, 1923, 1924, 1925, 1926, 1927, 1928, 1929, 1930, 1931, 1932, 1933, 1934, 1935, 1936
1937, 1938, 1939, 1940, 1941, 1942, 1943, 1944
*ELSET, ELSET=WARP_SEGMENT_9
1945, 1946, 1947, 1948, 1949, 1950, 1951, 1952, 1953, 1954, 1955, 1956, 1957, 1958, 1959, 1960
1961, 1962, 1963, 1964, 1965, 1966, 1967, 1968, 1969, 1970, 1971, 1972, 1973, 1974, 1975, 1976
1977, 1978, 1979, 1980, 1981, 1982, 1983, 1984, 1985, 1986, 1987, 1988, 1989, 1990, 1991, 1992
1993, 1994, 1995, 1996, 1997, 1998, 1999, 2000, 2001, 2002, 2003, 2004, 2005, 2006, 2007, 2008
2009, 2010, 2011, 2012, 2013, 2014, 2015, 2016, 2017, 2018, 2019, 2020, 2021, 2022, 2023, 2024
2025, 2026, 2027, 2028, 2029, 2030, 2031, 2032, 2033, 2034, 2035, 2036, 2037, 2038, 2039, 2040
2041, 2042, 2043, 2044, 2045, 2046, 2047, 2048, 2049, 2050, 2051, 2052, 2053, 2054, 2055, 2056
2057, 2058, 2059, 2060, 2061, 2062, 2063, 2064, 2065, 2066, 2067, 2068, 2069, 2070, 2071, 2072
2073, 2074, 2075, 2076, 2077, 2078, 2079, 2080, 2081, 2082, 2083, 2084, 2085, 2086, 2087, 2088
2089, 2090, 2091, 2092, 2093, 2094, 2095, 2096, 2097, 2098, 2099, 2100, 2101, 2102, 2103, 2104
2105, 2106, 2107, 2108, 2109, 2110, 2111, 2112, 2113, 2114, 2115, 2116, 2117, 2118, 2119, 2120
2121, 2122, 2123, 2124, 2125, 2126, 2127, 2128, 2129, 2130, 2131, 2132, 2133, 2134, 2135, 2136
2137, 2138, 2139, 2140, 2141, 2142, 2143, 2144, 2145, 2146, 2147, 2148, 2149, 2150, 2151, 2152
2153, 2154, 2155, 2156, 2157, 2158, 2159, 2160
*ELSET, ELSET=WEFT_SEGMENT_10
2161, 2162, 2163, 2164, 2165, 2166, 2167, 2168, 2169, 2170, 2171, 2172, 2173, 2174, 2175, 2176
2177, 2178, 2179, 2180, 2181, 2182, 2183, 2184, 2185, 2186, 2187, 2188, 2189, 2190, 2191, 2192
2193, 2194, 2195, 2196, 2197, 2198, 2199, 2200, 2201, 2202, 2203, 2204, 2205, 2206, 2207, 2208
2209, 2210, 2211, 2212, 2213, 2214, 2215, 2216, 2217, 2218, 2219, 2220, 2221, 2222, 2223, 2224
2225, 2226, 2227, 2228, 2229, 2230, 2231, 2232, 2233, 2234, 2235, 2236, 2237, 2238, 2239, 2240
2241, 2242, 2243, 2244, 2245, 2246, 2247, 2248, 2249, 2250, 2251, 2252, 2253, 2254, 2255, 2256
2257, 2258, 2259, 2260, 2261, 2262, 2263, 2264, 2265, 2266, 2267, 2268, 2269, 2270, 2271, 2272
2273, 2274, 2275, 2276, 2277, 2278, 2279, 2280, 2281, 2282, 2283, 2284, 2285, 2286, 2287, 2288
2289, 2290, 2291, 2292, 2293, 2294, 2295, 2296, 2297, 2298, 2299, 2300, 2301, 2302, 2303, 2304
2305, 2306, 2307, 2308, 2309, 2310, 2311, 2312, 2313, 2314, 2315, 2316, 2317, 2318, 2319, 2320
2321, 2322, 2323, 2324, 2325, 2326, 2327, 2328, 2329, 2330, 2331, 2332, 2333, 2334, 2335, 2336
2337, 2338, 2339, 2340, 2341, 2342, 2343, 2344, 2345, 2346, 2347, 2348, 2349, 2350, 2351, 2352
2353, 2354, 2355, 2356, 2357, 2358, 2359, 2360, 2361, 2362, 2363, 2364, 2365, 2366, 2367, 2368
2369, 2370, 2371, 2372, 2373, 2374, 2375, 2376
*ELSET, ELSET=WEFT_SEGMENT_11
2377, 2378, 2379, 2380, 2381, 2382, 2383, 2384, 2385, 2386, 2387, 2388, 2389, 2390, 2391, 2392
2393, 2394, 2395, 2396, 2397, 2398, 2399, 2400, 2401, 2402, 2403, 2404, 2405, 2406, 2407, 2408
2409, 2410, 2411, 2412, 2413, 2414, 2415, 2416, 2417, 2418, 2419, 2420, 2421, 2422, 2423, 2424
2425, 2426, 2427, 2428, 2429, 2430, 2431, 2432, 2433, 2434, 2435, 2436, 2437, 2438, 2439, 2440
2441, 2442, 2443, 2444, 2445, 2446, 2447, 2448, 2449, 2450, 2451, 2452, 2453, 2454, 2455, 2456
2457, 2458, 2459, 2460, 2461, 2462, 2463, 2464, 2465, 2466, 2467, 2468, 2469, 2470, 2471, 2472
2473, 2474, 2475, 2476, 2477, 2478, 2479, 2480, 2481, 2482, 2483, 2484, 2485, 2486, 2487, 2488
2489, 2490, 2491, 2492, 2493, 2494, 2495, 2496, 2497, 2498, 2499, 2500, 2501, 2502, 2503, 2504
2505, 2506, 2507, 2508, 2509, 2510, 2511, 2512, 2513, 2514, 2515, 2516, 2517, 2518, 2519, 2520
2521, 2522, 2523, 2524, 2525, 2526, 2527, 2528, 2529, 2530, 2531, 2532, 2533, 2534, 2535, 2536
2537, 2538, 2539, 2540, 2541, 2542, 2543, 2544, 2545, 2546, 2547, 2548, 2549, 2550, 2551, 2552
2553, 2554, 2555, 2556, 2557, 2558, 2559, 2560, 2561, 2562, 2563, 2564, 2565, 2566, 2567, 2568
2569, 2570, 2571, 2572, 2573, 2574, 2575, 2576, 2577, 2578, 2579, 2580, 2581, 2582, 2583, 2584
2585, 2586, 2587, 2588, 2589, 2590, 2591, 2592
*ELSET, ELSET=WEFT_SEGMENT_12
2593, 2594, 2595, 2596, 2597, 2598, 2599, 2600, 2601, 2602, 2603, 2604, 2605, 2606, 2607, 2608
2609, 2610, 2611, 2612, 2613, 2614, 2615, 2616, 2617, 2618, 2619, 2620, 2621, 2622, 2623, 2624
2625, 2626, 2627, 2628, 2629, 2630, 2631, 2632, 2633, 2634, 2635, 2636, 2637, 2638, 2639, 2640
2641, 2642, 2643, 2644, 2645, 2646, 2647, 2648, 2649, 2650, 2651, 2652, 2653, 2654, 2655, 2656
2657, 2658, 2659, 2660, 2661, 2662, 2663, 2664, 2665, 2666, 2667, 2668, 2669, 2670, 2671, 2672
2673, 2674, 2675, 2676, 2677, 2678, 2679, 2680, 2681, 2682, 2683, 2684, 2685, 2686, 2687, 2688
2689, 2690, 2691, 2692, 2693, 2694, 2695, 2696, 2697, 2698, 2699, 2700, 2701, 2702, 2703, 2704
2705, 2706, 2707, 2708, 2709, 2710, 2711, 2712, 2713, 2714, 2715, 2716, 2717, 2718, 2719, 2720
2721, 2722, 2723, 2724, 2725, 2726, 2727, 2728, 2729, 2730, 2731, 2732, 2733, 2734, 2735, 2736
2737, 2738, 2739, 2740, 2741, 2742, 2743, 2744, 2745, 2746, 2747, 2748, 2749, 2750, 2751, 2752
2753, 2754, 2755, 2756, 2757, 2758, 2759, 2760, 2761, 2762, 2763, 2764, 2765, 2766, 2767, 2768
2769, 2770, 2771, 2772, 2773, 2774, 2775, 2776, 2777, 2778, 2779, 2780, 2781, 2782, 2783, 2784
2785, 2786, 2787, 2788, 2789, 2790, 2791, 2792, 2793, 2794, 2795, 2796, 2797, 2798, 2799, 2800
2801, 2802, 2803, 2804, 2805, 2806, 2807, 2808
*ELSET, ELSET=WEFT_SEGMENT_13
2809, 2810, 2811, 2812, 2813, 2814, 2815, 2816, 2817, 2818, 2819, 2820, 2821, 2822, 2823, 2824
2825, 2826, 2827, 2828, 2829, 2830, 2831, 2832, 2833, 2834, 2835, 2836, 2837, 2838, 2839, 2840
2841, 2842, 2843, 2844, 2845, 2846, 2847, 2848, 2849, 2850, 2851, 2852, 2853, 2854, 2855, 2856
2857, 2858, 2859, 2860, 2861, 2862, 2863, 2864, 2865, 2866, 2867, 2868, 2869, 2870, 2871, 2872
2873, 2874, 2875, 2876, 2877, 2878, 2879, 2880, 2881, 2882, 2883, 2884, 2885, 2886, 2887, 2888
2889, 2890, 2891, 2892, 2893, 2894, 2895, 2896, 2897, 2898, 2899, 2900, 2901, 2902, 2903, 2904
2905, 2906, 2907, 2908, 2909, 2910, 2911, 2912, 2913, 2914, 2915, 2916, 2917, 2918, 2919, 2920
2921, 2922, 2923, 2924, 2925, 2926, 2927, 2928, 2929, 2930, 2931, 2932, 2933, 2934, 2935, 2936
2937, 2938, 2939, 2940, 2941, 2942, 2943, 2944, 2945, 2946, 2947, 2948, 2949, 2950, 2951, 2952
2953, 2954, 2955, 2956, 2957, 2958, 2959, 2960, 2961, 2962, 2963, 2964, 2965, 2966, 2967, 2968
2969, 2970, 2971, 2972, 2973, 2974, 2975, 2976, 2977, 2978, 2979, 2980, 2981, 2982, 2983, 2984
2985, 2986, 2987, 2988, 2989, 2990, 2991, 2992, 2993, 2994, 2995, 2996, 2997, 2998, 2999, 3000
3001, 3002, 3003, 3004, 3005, 3006, 3007, 3008, 3009, 3010, 3011, 3012, 3013, 3014, 3015, 3016
3017, 3018, 3019, 3020, 3021, 3022, 3023, 3024
*ELSET, ELSET=WEFT_SEGMENT_14
3025, 3026, 3027, 3028, 3029, 3030, 3031, 3032, 3033, 3034, 3035, 3036, 3037, 3038, 3039, 3040
3041, 3042, 3043, 3044, 3045, 3046, 3047, 3048, 3049, 3050, 3051, 3052, 3053, 3054, 3055, 3056
3057, 3058, 3059, 3060, 3061, 3062, 3063, 3064, 3065, 3066, 3067, 3068, 3069, 3070, 3071, 3072
3073, 3074, 3075, 3076, 3077, 3078, 3079, 3080, 3081, 3082, 3083, 3084, 3085, 3086, 3087, 3088
3089, 3090, 3091, 3092, 3093, 3094, 3095, 3096, 3097, 3098, 3099, 3100, 3101, 3102, 3103, 3104
3105, 3106, 3107, 3108, 3109, 3110, 3111, 3112, 3113, 3114, 3115, 3116, 3117, 3118, 3119, 3120
3121, 3122, 3123, 3124, 3125, 3126, 3127, 3128, 3129, 3130, 3131, 3132, 3133, 3134, 3135, 3136
3137, 3138, 3139, 3140, 3141, 3142, 3143, 3144, 3145, 3146, 3147, 3148, 3149, 3150, 3151, 3152
3153, 3154, 3155, 3156, 3157, 3158, 3159, 3160, 3161, 3162, 3163, 3164, 3165, 3166, 3167, 3168
3169, 3170, 3171, 3172, 3173, 3174, 3175, 3176, 3177, 3178, 3179, 3180, 3181, 3182, 3183, 3184
3185, 3186, 3187, 3188, 3189, 3190, 3191, 3192, 3193, 3194, 3195, 3196, 3197, 3198, 3199, 3200
3201, 3202, 3203, 3204, 3205, 3206, 3207, 3208, 3209, 3210, 3211, 3212, 3213, 3214, 3215, 3216
3217, 3218, 3219, 3220, 3221, 3222, 3223, 3224, 3225, 3226, 3227, 3228, 3229, 3230, 3231, 3232
3233, 3234, 3235, 3236, 3237, 3238, 3239, 3240
*ELSET, ELSET=WEFT_SEGMENT_15
3241, 3242, 3243, 3244, 3245, 3246, 3247, 3248, 3249, 3250, 3251, 3252, 3253, 3254, 3255, 3256
3257, 3258, 3259, 3260, 3261, 3262, 3263, 3264, 3265, 3266, 3267, 3268, 3269, 3270, 3271, 3272
3273, 3274, 3275, 3276, 3277, 3278, 3279, 3280, 3281, 3282, 3283, 3284, 3285, 3286, 3287, 3288
3289, 3290, 3291, 3292, 3293, 3294, 3295, 3296, 3297, 3298, 3299, 3300, 3301, 3302, 3303, 3304
3305, 3306, 3307, 3308, 3309, 3310, 3311, 3312, 3313, 3314, 3315, 3316, 3317, 3318, 3319, 3320
3321, 3322, 3323, 3324, 3325, 3326, 3327, 3328, 3329, 3330, 3331, 3332, 3333, 3334, 3335, 3336
3337, 3338, 3339, 3340, 3341, 3342, 3343, 3344, 3345, 3346, 3347, 3348, 3349, 3350, 3351, 3352
3353, 3354, 3355, 3356, 3357, 3358, 3359, 3360, 3361, 3362, 3363, 3364, 3365, 3366, 3367, 3368
3369, 3370, 3371, 3372, 3373, 3374, 3375, 3376, 3377, 3378, 3379, 3380, 3381, 3382, 3383, 3384
3385, 3386, 3387, 3388, 3389, 3390, 3391, 3392, 3393, 3394, 3395, 3396, 3397, 3398, 3399, 3400
3401, 3402, 3403, 3404, 3405, 3406, 3407, 3408, 3409, 3410, 3411, 3412, 3413, 3414, 3415, 3416
3417, 3418, 3419, 3420, 3421, 3422, 3423, 3424, 3425, 3426, 3427, 3428, 3429, 3430, 3431, 3432
3433, 3434, 3435, 3436, 3437, 3438, 3439, 3440, 3441, 3442, 3443, 3444, 3445, 3446, 3447, 3448
3449, 3450, 3451, 3452, 3453, 3454, 3455, 3456
*ELSET, ELSET=WEFT_SEGMENT_16
3457, 3458, 3459, 3460, 3461, 3462, 3463, 3464, 3465, 3466, 3467, 3468, 3469, 3470, 3471, 3472
3473, 3474, 3475, 3476, 3477, 3478, 3479, 3480, 3481, 3482, 3483, 3484, 3485, 3486, 3487, 3488
3489, 3490, 3491, 3492, 3493, 3494, 3495, 3496, 3497, 3498, 3499, 3500, 3501, 3502, 3503, 3504
3505, 3506, 3507, 3508, 3509, 3510, 3511, 3512, 3513, 3514, 3515, 3516, 3517, 3518, 3519, 3520
3521, 3522, 3523, 3524, 3525, 3526, 3527, 3528, 3529, 3530, 3531, 3532, 3533, 3534, 3535, 3536
3537, 3538, 3539, 3540, 3541, 3542, 3543, 3544, 3545, 3546, 3547, 3548, 3549, 3550, 3551, 3552
3553, 3554, 3555, 3556, 3557, 3558, 3559, 3560, 3561, 3562, 3563, 3564, 3565, 3566, 3567, 3568
3569, 3570, 3571, 3572, 3573, 3574, 3575, 3576, 3577, 3578, 3579, 3580, 3581, 3582, 3583, 3584
3585, 3586, 3587, 3588, 3589, 3590, 3591, 3592, 3593, 3594, 3595, 3596, 3597, 3598, 3599, 3600
3601, 3602, 3603, 3604, 3605, 3606, 3607, 3608, 3609, 3610, 3611, 3612, 3613, 3614, 3615, 3616
3617, 3618, 3619, 3620, 3621, 3622, 3623, 3624, 3625, 3626, 3627, 3628, 3629, 3630, 3631, 3632
3633, 3634, 3635, 3636, 3637, 3638, 3639, 3640, 3641, 3642, 3643, 3644, 3645, 3646, 3647, 3648
3649, 3650, 3651, 3652, 3653, 3654, 3655, 3656, 3657, 3658, 3659, 3660, 3661, 3662, 3663, 3664
3665, 3666, 3667, 3668, 3669, 3670, 3671, 3672
*ELSET, ELSET=WEFT_SEGMENT_17
3673, 3674, 3675, 3676, 3677, 3678, 3679, 3680, 3681, 3682, 3683, 3684, 3685, 3686, 3687, 3688
3689, 3690, 3691, 3692, 3693, 3694, 3695, 3696, 3697, 3698, 3699, 3700, 3701, 3702, 3703, 3704
3705, 3706, 3707, 3708, 3709, 3710, 3711, 3712, 3713, 3714, 3715, 3716, 3717, 3718, 3719, 3720
3721, 3722, 3723, 3724, 3725, 3726, 3727, 3728, 3729, 3730, 3731, 3732, 3733, 3734, 3735, 3736
3737, 3738, 3739, 3740, 3741, 3742, 3743, 3744, 3745, 3746, 3747, 3748, 3749, 3750, 3751, 3752
3753, 3754, 3755, 3756, 3757, 3758, 3759, 3760, 3761, 3762, 3763, 3764, 3765, 3766, 3767, 3768
3769, 3770, 3771, 3772, 3773, 3774, 3775, 3776, 3777, 3778, 3779, 3780, 3781, 3782, 3783, 3784
3785, 3786, 3787, 3788, 3789, 3790, 3791, 3792, 3793, 3794, 3795, 3796, 3797, 3798, 3799, 3800
3801, 3802, 3803, 3804, 3805, 3806, 3807, 3808, 3809, 3810, 3811, 3812, 3813, 3814, 3815, 3816
3817, 3818, 3819, 3820, 3821, 3822, 3823, 3824, 3825, 3826, 3827, 3828, 3829, 3830, 3831, 3832
3833, 3834, 3835, 3836, 3837, 3838, 3839, 3840, 3841, 3842, 3843, 3844, 3845, 3846, 3847, 3848
3849, 3850, 3851, 3852, 3853, 3854, 3855, 3856, 3857, 3858, 3859, 3860, 3861, 3862, 3863, 3864
3865, 3866, 3867, 3868, 3869, 3870, 3871, 3872, 3873, 3874, 3875, 3876, 3877, 3878, 3879, 3880
3881, 3882, 3883, 3884, 3885, 3886, 3887, 3888
*ELSET, ELSET=WEFT_SEGMENT_18
3889, 3890, 3891, 3892, 3893, 3894, 3895, 3896, 3897, 3898, 3899, 3900, 3901, 3902, 3903, 3904
3905, 3906, 3907, 3908, 3909, 3910, 3911, 3912, 3913, 3914, 3915, 3916, 3917, 3918, 3919, 3920
3921, 3922, 3923, 3924, 3925, 3926, 3927, 3928, 3929, 3930, 3931, 3932, 3933, 3934, 3935, 3936
3937, 3938, 3939, 3940, 3941, 3942, 3943, 3944, 3945, 3946, 3947, 3948, 3949, 3950, 3951, 3952
3953, 3954, 3955, 3956, 3957, 3958, 3959, 3960, 3961, 3962, 3963, 3964, 3965, 3966, 3967, 3968
3969, 3970, 3971, 3972, 3973, 3974, 3975, 3976, 3977, 3978, 3979, 3980, 3981, 3982, 3983, 3984
3985, 3986, 3987, 3988, 3989, 3990, 3991, 3992, 3993, 3994, 3995, 3996, 3997, 3998, 3999, 4000
4001, 4002, 4003, 4004, 4005, 4006, 4007, 4008, 4009, 4010, 4011, 4012, 4013, 4014, 4015, 4016
4017, 4018, 4019, 4020, 4021, 4022, 4023, 4024, 4025, 4026, 4027, 4028, 4029, 4030, 4031, 4032
4033, 4034, 4035, 4036, 4037, 4038, 4039, 4040, 4041, 4042, 4043, 4044, 4045, 4046, 4047, 4048
4049, 4050, 4051, 4052, 4053, 4054, 4055, 4056, 4057, 4058, 4059, 4060, 4061, 4062, 4063, 4064
4065, 4066, 4067, 4068, 4069, 4070, 4071, 4072, 4073, 4074, 4075, 4076, 4077, 4078, 4079, 4080
4081, 4082, 4083, 4084, 4085, 4086, 4087, 4088, 4089, 4090, 4091, 4092, 4093, 4094, 4095, 4096
4097, 4098, 4099, 4100, 4101, 4102, 4103, 4104
*ELSET, ELSET=WEFT_SEGMENT_19
4105, 4106, 4107, 4108, 4109, 4110, 4111, 4112, 4113, 4114, 4115, 4116, 4117, 4118, 4119, 4120
4121, 4122, 4123, 4124, 4125, 4126, 4127, 4128, 4129, 4130, 4131, 4132, 4133, 4134, 4135, 4136
4137, 4138, 4139, 4140, 4141, 4142, 4143, 4144, 4145, 4146, 4147, 4148, 4149, 4150, 4151, 4152
4153, 4154, 4155, 4156, 4157, 4158, 4159, 4160, 4161, 4162, 4163, 4164, 4165, 4166, 4167, 4168
4169, 4170, 4171, 4172, 4173, 4174, 4175, 4176, 4177, 4178, 4179, 4180, 4181, 4182, 4183, 4184
4185, 4186, 4187, 4188, 4189, 4190, 4191, 4192, 4193, 4194, 4195, 4196, 4197, 4198, 4199, 4200
4201, 4202, 4203, 4204, 4205, 4206, 4207, 4208, 4209, 4210, 4211, 4212, 4213, 4214, 4215, 4216
4217, 4218, 4219, 4220, 4221, 4222, 4223, 4224, 4225, 4226, 4227, 4228, 4229, 4230, 4231, 4232
4233, 4234, 4235, 4236, 4237, 4238, 4239, 4240, 4241, 4242, 4243, 4244, 4245, 4246, 4247, 4248
4249, 4250, 4251, 4252, 4253, 4254, 4255, 4256, 4257, 4258, 4259, 4260, 4261, 4262, 4263, 4264
4265, 4266, 4267, 4268, 4269, 4270, 4271, 4272, 4273, 4274, 4275, 4276, 4277, 4278, 4279, 4280
4281, 4282, 4283, 4284, 4285, 4286, 4287, 4288, 4289, 4290, 4291, 4292, 4293, 4294, 4295, 4296
4297, 4298, 4299, 4300, 4301, 4302, 4303, 4304, 4305, 4306, 4307, 4308, 4309, 4310, 4311, 4312
4313, 4314, 4315, 4316, 4317, 4318, 4319, 4320
