*NODE
1,	-1.7500000000,	-0.0377993410,	-1.5000000000
2,	-1.6666666667,	-0.0283288240,	-1.5000000000
3,	-1.5833333333,	-0.0243897627,	-1.5000000000
4,	-1.5000000000,	-0.0232142857,	-1.5000000000
5,	-1.4166666667,	-0.0243897627,	-1.5000000000
6,	-1.3333333333,	-0.0283288240,	-1.5000000000
7,	-1.2500000000,	-0.0377993410,	-1.5000000000
8,	-1.7500000000,	-0.0482142857,	-1.5000000000
9,	-1.6666666667,	-0.0482142857,	-1.5000000000
10,	-1.5833333333,	-0.0482142857,	-1.5000000000
11,	-1.5000000000,	-0.0482142857,	-1.5000000000
12,	-1.4166666667,	-0.0482142857,	-1.5000000000
13,	-1.3333333333,	-0.0482142857,	-1.5000000000
14,	-1.2500000000,	-0.0482142857,	-1.5000000000
15,	-1.7500000000,	-0.0586292305,	-1.5000000000
16,	-1.6666666667,	-0.0680997475,	-1.5000000000
17,	-1.5833333333,	-0.0720388087,	-1.5000000000
18,	-1.5000000000,	-0.0732142857,	-1.5000000000
19,	-1.4166666667,	-0.0720388087,	-1.5000000000
20,	-1.3333333333,	-0.0680997475,	-1.5000000000
21,	-1.2500000000,	-0.0586292305,	-1.5000000000
22,	-1.7500000000,	-0.0352337070,	-1.3508446736
23,	-1.6666666667,	-0.0257689938,	-1.3511761788
24,	-1.5833333333,	-0.0218323465,	-1.3513140613
25,	-1.5000000000,	-0.0206575899,	-1.3513552076
26,	-1.4166666667,	-0.0218323465,	-1.3513140613
27,	-1.3333333333,	-0.0257689938,	-1.3511761788
28,	-1.2500000000,	-0.0352337070,	-1.3508446736
29,	-1.7500000000,	-0.0456422693,	-1.3504801097
30,	-1.6666666667,	-0.0456422693,	-1.3504801097
31,	-1.5833333333,	-0.0456422693,	-1.3504801097
32,	-1.5000000000,	-0.0456422693,	-1.3504801097
33,	-1.4166666667,	-0.0456422693,	-1.3504801097
34,	-1.3333333333,	-0.0456422693,	-1.3504801097
35,	-1.2500000000,	-0.0456422693,	-1.3504801097
36,	-1.7500000000,	-0.0560508315,	-1.3501155459
37,	-1.6666666667,	-0.0655155447,	-1.3497840407
38,	-1.5833333333,	-0.0694521920,	-1.3496461581
39,	-1.5000000000,	-0.0706269486,	-1.3496050118
40,	-1.4166666667,	-0.0694521920,	-1.3496461581
41,	-1.3333333333,	-0.0655155447,	-1.3497840407
42,	-1.2500000000,	-0.0560508315,	-1.3501155459
43,	-1.7500000000,	-0.0283645818,	-1.2305601678
44,	-1.6666666667,	-0.0189215821,	-1.2312815896
45,	-1.5833333333,	-0.0149939661,	-1.2315816497
46,	-1.5000000000,	-0.0138219046,	-1.2316711923
47,	-1.4166666667,	-0.0149939661,	-1.2315816497
48,	-1.3333333333,	-0.0189215821,	-1.2312815896
49,	-1.2500000000,	-0.0283645818,	-1.2305601678
50,	-1.7500000000,	-0.0387492651,	-1.2297668038
51,	-1.6666666667,	-0.0387492651,	-1.2297668038
52,	-1.5833333333,	-0.0387492651,	-1.2297668038
53,	-1.5000000000,	-0.0387492651,	-1.2297668038
54,	-1.4166666667,	-0.0387492651,	-1.2297668038
55,	-1.3333333333,	-0.0387492651,	-1.2297668038
56,	-1.2500000000,	-0.0387492651,	-1.2297668038
57,	-1.7500000000,	-0.0491339485,	-1.2289734398
58,	-1.6666666667,	-0.0585769481,	-1.2282520181
59,	-1.5833333333,	-0.0625045642,	-1.2279519580
60,	-1.5000000000,	-0.0636766257,	-1.2278624154
61,	-1.4166666667,	-0.0625045642,	-1.2279519580
62,	-1.3333333333,	-0.0585769481,	-1.2282520181
63,	-1.2500000000,	-0.0491339485,	-1.2289734398
64,	-1.7500000000,	-0.0184243381,	-1.1308303121
65,	-1.6666666667,	-0.0090169657,	-1.1319221166
66,	-1.5833333333,	-0.0051041681,	-1.1323762297
67,	-1.5000000000,	-0.0039365286,	-1.1325117440
68,	-1.4166666667,	-0.0051041681,	-1.1323762297
69,	-1.3333333333,	-0.0090169657,	-1.1319221166
70,	-1.2500000000,	-0.0184243381,	-1.1308303121
71,	-1.7500000000,	-0.0287698413,	-1.1296296296
72,	-1.6666666667,	-0.0287698413,	-1.1296296296
73,	-1.5833333333,	-0.0287698413,	-1.1296296296
74,	-1.5000000000,	-0.0287698413,	-1.1296296296
75,	-1.4166666667,	-0.0287698413,	-1.1296296296
76,	-1.3333333333,	-0.0287698413,	-1.1296296296
77,	-1.2500000000,	-0.0287698413,	-1.1296296296
78,	-1.7500000000,	-0.0391153444,	-1.1284289471
79,	-1.6666666667,	-0.0485227168,	-1.1273371426
80,	-1.5833333333,	-0.0524355144,	-1.1268830296
81,	-1.5000000000,	-0.0536031539,	-1.1267475152
82,	-1.4166666667,	-0.0524355144,	-1.1268830296
83,	-1.3333333333,	-0.0485227168,	-1.1273371426
84,	-1.2500000000,	-0.0391153444,	-1.1284289471
85,	-1.7500000000,	-0.0066264892,	-1.0432983244
86,	-1.6666666667,	0.0027504876,	-1.0446261044
87,	-1.5833333333,	0.0066506427,	-1.0451783663
88,	-1.5000000000,	0.0078145095,	-1.0453431699
89,	-1.4166666667,	0.0066506427,	-1.0451783663
90,	-1.3333333333,	0.0027504876,	-1.0446261044
91,	-1.2500000000,	-0.0066264892,	-1.0432983244
92,	-1.7500000000,	-0.0169385655,	-1.0418381344
93,	-1.6666666667,	-0.0169385655,	-1.0418381344
94,	-1.5833333333,	-0.0169385655,	-1.0418381344
95,	-1.5000000000,	-0.0169385655,	-1.0418381344
96,	-1.4166666667,	-0.0169385655,	-1.0418381344
97,	-1.3333333333,	-0.0169385655,	-1.0418381344
98,	-1.2500000000,	-0.0169385655,	-1.0418381344
99,	-1.7500000000,	-0.0272506419,	-1.0403779444
100,	-1.6666666667,	-0.0366276187,	-1.0390501645
101,	-1.5833333333,	-0.0405277738,	-1.0384979025
102,	-1.5000000000,	-0.0416916406,	-1.0383330990
103,	-1.4166666667,	-0.0405277738,	-1.0384979025
104,	-1.3333333333,	-0.0366276187,	-1.0390501645
105,	-1.2500000000,	-0.0272506419,	-1.0403779444
106,	-1.7500000000,	0.0058220705,	-0.9596220556
107,	-1.6666666667,	0.0151990472,	-0.9609498355
108,	-1.5833333333,	0.0190992024,	-0.9615020975
109,	-1.5000000000,	0.0202630692,	-0.9616669010
110,	-1.4166666667,	0.0190992024,	-0.9615020975
111,	-1.3333333333,	0.0151990472,	-0.9609498355
112,	-1.2500000000,	0.0058220705,	-0.9596220556
113,	-1.7500000000,	-0.0044900059,	-0.9581618656
114,	-1.6666666667,	-0.0044900059,	-0.9581618656
115,	-1.5833333333,	-0.0044900059,	-0.9581618656
116,	-1.5000000000,	-0.0044900059,	-0.9581618656
117,	-1.4166666667,	-0.0044900059,	-0.9581618656
118,	-1.3333333333,	-0.0044900059,	-0.9581618656
119,	-1.2500000000,	-0.0044900059,	-0.9581618656
120,	-1.7500000000,	-0.0148020823,	-0.9567016756
121,	-1.6666666667,	-0.0241790590,	-0.9553738956
122,	-1.5833333333,	-0.0280792142,	-0.9548216337
123,	-1.5000000000,	-0.0292430810,	-0.9546568301
124,	-1.4166666667,	-0.0280792142,	-0.9548216337
125,	-1.3333333333,	-0.0241790590,	-0.9553738956
126,	-1.2500000000,	-0.0148020823,	-0.9567016756
127,	-1.7500000000,	0.0176867730,	-0.8715710529
128,	-1.6666666667,	0.0270941454,	-0.8726628574
129,	-1.5833333333,	0.0310069430,	-0.8731169704
130,	-1.5000000000,	0.0321745825,	-0.8732524848
131,	-1.4166666667,	0.0310069430,	-0.8731169704
132,	-1.3333333333,	0.0270941454,	-0.8726628574
133,	-1.2500000000,	0.0176867730,	-0.8715710529
134,	-1.7500000000,	0.0073412698,	-0.8703703704
135,	-1.6666666667,	0.0073412698,	-0.8703703704
136,	-1.5833333333,	0.0073412698,	-0.8703703704
137,	-1.5000000000,	0.0073412698,	-0.8703703704
138,	-1.4166666667,	0.0073412698,	-0.8703703704
139,	-1.3333333333,	0.0073412698,	-0.8703703704
140,	-1.2500000000,	0.0073412698,	-0.8703703704
141,	-1.7500000000,	-0.0030042333,	-0.8691696879
142,	-1.6666666667,	-0.0124116057,	-0.8680778834
143,	-1.5833333333,	-0.0163244033,	-0.8676237703
144,	-1.5000000000,	-0.0174920428,	-0.8674882560
145,	-1.4166666667,	-0.0163244033,	-0.8676237703
146,	-1.3333333333,	-0.0124116057,	-0.8680778834
147,	-1.2500000000,	-0.0030042333,	-0.8691696879
148,	-1.7500000000,	0.0277053770,	-0.7710265602
149,	-1.6666666667,	0.0371483767,	-0.7717479819
150,	-1.5833333333,	0.0410759927,	-0.7720480420
151,	-1.5000000000,	0.0422480543,	-0.7721375846
152,	-1.4166666667,	0.0410759927,	-0.7720480420
153,	-1.3333333333,	0.0371483767,	-0.7717479819
154,	-1.2500000000,	0.0277053770,	-0.7710265602
155,	-1.7500000000,	0.0173206937,	-0.7702331962
156,	-1.6666666667,	0.0173206937,	-0.7702331962
157,	-1.5833333333,	0.0173206937,	-0.7702331962
158,	-1.5000000000,	0.0173206937,	-0.7702331962
159,	-1.4166666667,	0.0173206937,	-0.7702331962
160,	-1.3333333333,	0.0173206937,	-0.7702331962
161,	-1.2500000000,	0.0173206937,	-0.7702331962
162,	-1.7500000000,	0.0069360104,	-0.7694398322
163,	-1.6666666667,	-0.0025069893,	-0.7687184104
164,	-1.5833333333,	-0.0064346053,	-0.7684183503
165,	-1.5000000000,	-0.0076066669,	-0.7683288077
166,	-1.4166666667,	-0.0064346053,	-0.7684183503
167,	-1.3333333333,	-0.0025069893,	-0.7687184104
168,	-1.2500000000,	0.0069360104,	-0.7694398322
169,	-1.7500000000,	0.0346222600,	-0.6498844541
170,	-1.6666666667,	0.0440869733,	-0.6502159593
171,	-1.5833333333,	0.0480236206,	-0.6503538419
172,	-1.5000000000,	0.0491983772,	-0.6503949882
173,	-1.4166666667,	0.0480236206,	-0.6503538419
174,	-1.3333333333,	0.0440869733,	-0.6502159593
175,	-1.2500000000,	0.0346222600,	-0.6498844541
176,	-1.7500000000,	0.0242136978,	-0.6495198903
177,	-1.6666666667,	0.0242136978,	-0.6495198903
178,	-1.5833333333,	0.0242136978,	-0.6495198903
179,	-1.5000000000,	0.0242136978,	-0.6495198903
180,	-1.4166666667,	0.0242136978,	-0.6495198903
181,	-1.3333333333,	0.0242136978,	-0.6495198903
182,	-1.2500000000,	0.0242136978,	-0.6495198903
183,	-1.7500000000,	0.0138051356,	-0.6491553264
184,	-1.6666666667,	0.0043404224,	-0.6488238212
185,	-1.5833333333,	0.0004037751,	-0.6486859387
186,	-1.5000000000,	-0.0007709816,	-0.6486447924
187,	-1.4166666667,	0.0004037751,	-0.6486859387
188,	-1.3333333333,	0.0043404224,	-0.6488238212
189,	-1.2500000000,	0.0138051356,	-0.6491553264
190,	-1.7500000000,	0.0372001520,	-0.5001027741
191,	-1.6666666667,	0.0466702078,	-0.5001962286
192,	-1.5833333333,	0.0506090773,	-0.5002350990
193,	-1.5000000000,	0.0517844971,	-0.5002466985
194,	-1.4166666667,	0.0506090773,	-0.5002350990
195,	-1.3333333333,	0.0466702078,	-0.5001962286
196,	-1.2500000000,	0.0372001520,	-0.5001027741
197,	-1.7500000000,	0.0267857143,	-0.5000000000
198,	-1.6666666667,	0.0267857143,	-0.5000000000
199,	-1.5833333333,	0.0267857143,	-0.5000000000
200,	-1.5000000000,	0.0267857143,	-0.5000000000
201,	-1.4166666667,	0.0267857143,	-0.5000000000
202,	-1.3333333333,	0.0267857143,	-0.5000000000
203,	-1.2500000000,	0.0267857143,	-0.5000000000
204,	-1.7500000000,	0.0163712766,	-0.4998972259
205,	-1.6666666667,	0.0069012208,	-0.4998037714
206,	-1.5833333333,	0.0029623513,	-0.4997649010
207,	-1.5000000000,	0.0017869315,	-0.4997533015
208,	-1.4166666667,	0.0029623513,	-0.4997649010
209,	-1.3333333333,	0.0069012208,	-0.4998037714
210,	-1.2500000000,	0.0163712766,	-0.4998972259
211,	-1.7500000000,	0.0372006590,	-0.3888888889
212,	-1.6666666667,	0.0466711760,	-0.3888888889
213,	-1.5833333333,	0.0506102373,	-0.3888888889
214,	-1.5000000000,	0.0517857143,	-0.3888888889
215,	-1.4166666667,	0.0506102373,	-0.3888888889
216,	-1.3333333333,	0.0466711760,	-0.3888888889
217,	-1.2500000000,	0.0372006590,	-0.3888888889
218,	-1.7500000000,	0.0267857143,	-0.3888888889
219,	-1.6666666667,	0.0267857143,	-0.3888888889
220,	-1.5833333333,	0.0267857143,	-0.3888888889
221,	-1.5000000000,	0.0267857143,	-0.3888888889
222,	-1.4166666667,	0.0267857143,	-0.3888888889
223,	-1.3333333333,	0.0267857143,	-0.3888888889
224,	-1.2500000000,	0.0267857143,	-0.3888888889
225,	-1.7500000000,	0.0163707695,	-0.3888888889
226,	-1.6666666667,	0.0069002525,	-0.3888888889
227,	-1.5833333333,	0.0029611913,	-0.3888888889
228,	-1.5000000000,	0.0017857143,	-0.3888888889
229,	-1.4166666667,	0.0029611913,	-0.3888888889
230,	-1.3333333333,	0.0069002525,	-0.3888888889
231,	-1.2500000000,	0.0163707695,	-0.3888888889
232,	-1.7500000000,	0.0372006590,	-0.2777777778
233,	-1.6666666667,	0.0466711760,	-0.2777777778
234,	-1.5833333333,	0.0506102373,	-0.2777777778
235,	-1.5000000000,	0.0517857143,	-0.2777777778
236,	-1.4166666667,	0.0506102373,	-0.2777777778
237,	-1.3333333333,	0.0466711760,	-0.2777777778
238,	-1.2500000000,	0.0372006590,	-0.2777777778
239,	-1.7500000000,	0.0267857143,	-0.2777777778
240,	-1.6666666667,	0.0267857143,	-0.2777777778
241,	-1.5833333333,	0.0267857143,	-0.2777777778
242,	-1.5000000000,	0.0267857143,	-0.2777777778
243,	-1.4166666667,	0.0267857143,	-0.2777777778
244,	-1.3333333333,	0.0267857143,	-0.2777777778
245,	-1.2500000000,	0.0267857143,	-0.2777777778
246,	-1.7500000000,	0.0163707695,	-0.2777777778
247,	-1.6666666667,	0.0069002525,	-0.2777777778
248,	-1.5833333333,	0.0029611913,	-0.2777777778
249,	-1.5000000000,	0.0017857143,	-0.2777777778
250,	-1.4166666667,	0.0029611913,	-0.2777777778
251,	-1.3333333333,	0.0069002525,	-0.2777777778
252,	-1.2500000000,	0.0163707695,	-0.2777777778
253,	-1.7500000000,	0.0372006590,	-0.1666666667
254,	-1.6666666667,	0.0466711760,	-0.1666666667
255,	-1.5833333333,	0.0506102373,	-0.1666666667
256,	-1.5000000000,	0.0517857143,	-0.1666666667
257,	-1.4166666667,	0.0506102373,	-0.1666666667
258,	-1.3333333333,	0.0466711760,	-0.1666666667
259,	-1.2500000000,	0.0372006590,	-0.1666666667
260,	-1.7500000000,	0.0267857143,	-0.1666666667
261,	-1.6666666667,	0.0267857143,	-0.1666666667
262,	-1.5833333333,	0.0267857143,	-0.1666666667
263,	-1.5000000000,	0.0267857143,	-0.1666666667
264,	-1.4166666667,	0.0267857143,	-0.1666666667
265,	-1.3333333333,	0.0267857143,	-0.1666666667
266,	-1.2500000000,	0.0267857143,	-0.1666666667
267,	-1.7500000000,	0.0163707695,	-0.1666666667
268,	-1.6666666667,	0.0069002525,	-0.1666666667
269,	-1.5833333333,	0.0029611913,	-0.1666666667
270,	-1.5000000000,	0.0017857143,	-0.1666666667
271,	-1.4166666667,	0.0029611913,	-0.1666666667
272,	-1.3333333333,	0.0069002525,	-0.1666666667
273,	-1.2500000000,	0.0163707695,	-0.1666666667
274,	-1.7500000000,	0.0372006590,	-0.0555555556
275,	-1.6666666667,	0.0466711760,	-0.0555555556
276,	-1.5833333333,	0.0506102373,	-0.0555555556
277,	-1.5000000000,	0.0517857143,	-0.0555555556
278,	-1.4166666667,	0.0506102373,	-0.0555555556
279,	-1.3333333333,	0.0466711760,	-0.0555555556
280,	-1.2500000000,	0.0372006590,	-0.0555555556
281,	-1.7500000000,	0.0267857143,	-0.0555555556
282,	-1.6666666667,	0.0267857143,	-0.0555555556
283,	-1.5833333333,	0.0267857143,	-0.0555555556
284,	-1.5000000000,	0.0267857143,	-0.0555555556
285,	-1.4166666667,	0.0267857143,	-0.0555555556
286,	-1.3333333333,	0.0267857143,	-0.0555555556
287,	-1.2500000000,	0.0267857143,	-0.0555555556
288,	-1.7500000000,	0.0163707695,	-0.0555555556
289,	-1.6666666667,	0.0069002525,	-0.0555555556
290,	-1.5833333333,	0.0029611913,	-0.0555555556
291,	-1.5000000000,	0.0017857143,	-0.0555555556
292,	-1.4166666667,	0.0029611913,	-0.0555555556
293,	-1.3333333333,	0.0069002525,	-0.0555555556
294,	-1.2500000000,	0.0163707695,	-0.0555555556
295,	-1.7500000000,	0.0372006590,	0.0555555556
296,	-1.6666666667,	0.0466711760,	0.0555555556
297,	-1.5833333333,	0.0506102373,	0.0555555556
298,	-1.5000000000,	0.0517857143,	0.0555555556
299,	-1.4166666667,	0.0506102373,	0.0555555556
300,	-1.3333333333,	0.0466711760,	0.0555555556
301,	-1.2500000000,	0.0372006590,	0.0555555556
302,	-1.7500000000,	0.0267857143,	0.0555555556
303,	-1.6666666667,	0.0267857143,	0.0555555556
304,	-1.5833333333,	0.0267857143,	0.0555555556
305,	-1.5000000000,	0.0267857143,	0.0555555556
306,	-1.4166666667,	0.0267857143,	0.0555555556
307,	-1.3333333333,	0.0267857143,	0.0555555556
308,	-1.2500000000,	0.0267857143,	0.0555555556
309,	-1.7500000000,	0.0163707695,	0.0555555556
310,	-1.6666666667,	0.0069002525,	0.0555555556
311,	-1.5833333333,	0.0029611913,	0.0555555556
312,	-1.5000000000,	0.0017857143,	0.0555555556
313,	-1.4166666667,	0.0029611913,	0.0555555556
314,	-1.3333333333,	0.0069002525,	0.0555555556
315,	-1.2500000000,	0.0163707695,	0.0555555556
316,	-1.7500000000,	0.0372006590,	0.1666666667
317,	-1.6666666667,	0.0466711760,	0.1666666667
318,	-1.5833333333,	0.0506102373,	0.1666666667
319,	-1.5000000000,	0.0517857143,	0.1666666667
320,	-1.4166666667,	0.0506102373,	0.1666666667
321,	-1.3333333333,	0.0466711760,	0.1666666667
322,	-1.2500000000,	0.0372006590,	0.1666666667
323,	-1.7500000000,	0.0267857143,	0.1666666667
324,	-1.6666666667,	0.0267857143,	0.1666666667
325,	-1.5833333333,	0.0267857143,	0.1666666667
326,	-1.5000000000,	0.0267857143,	0.1666666667
327,	-1.4166666667,	0.0267857143,	0.1666666667
328,	-1.3333333333,	0.0267857143,	0.1666666667
329,	-1.2500000000,	0.0267857143,	0.1666666667
330,	-1.7500000000,	0.0163707695,	0.1666666667
331,	-1.6666666667,	0.0069002525,	0.1666666667
332,	-1.5833333333,	0.0029611913,	0.1666666667
333,	-1.5000000000,	0.0017857143,	0.1666666667
334,	-1.4166666667,	0.0029611913,	0.1666666667
335,	-1.3333333333,	0.0069002525,	0.1666666667
336,	-1.2500000000,	0.0163707695,	0.1666666667
337,	-1.7500000000,	0.0372006590,	0.2777777778
338,	-1.6666666667,	0.0466711760,	0.2777777778
339,	-1.5833333333,	0.0506102373,	0.2777777778
340,	-1.5000000000,	0.0517857143,	0.2777777778
341,	-1.4166666667,	0.0506102373,	0.2777777778
342,	-1.3333333333,	0.0466711760,	0.2777777778
343,	-1.2500000000,	0.0372006590,	0.2777777778
344,	-1.7500000000,	0.0267857143,	0.2777777778
345,	-1.6666666667,	0.0267857143,	0.2777777778
346,	-1.5833333333,	0.0267857143,	0.2777777778
347,	-1.5000000000,	0.0267857143,	0.2777777778
348,	-1.4166666667,	0.0267857143,	0.2777777778
349,	-1.3333333333,	0.0267857143,	0.2777777778
350,	-1.2500000000,	0.0267857143,	0.2777777778
351,	-1.7500000000,	0.0163707695,	0.2777777778
352,	-1.6666666667,	0.0069002525,	0.2777777778
353,	-1.5833333333,	0.0029611913,	0.2777777778
354,	-1.5000000000,	0.0017857143,	0.2777777778
355,	-1.4166666667,	0.0029611913,	0.2777777778
356,	-1.3333333333,	0.0069002525,	0.2777777778
357,	-1.2500000000,	0.0163707695,	0.2777777778
358,	-1.7500000000,	0.0372006590,	0.3888888889
359,	-1.6666666667,	0.0466711760,	0.3888888889
360,	-1.5833333333,	0.0506102373,	0.3888888889
361,	-1.5000000000,	0.0517857143,	0.3888888889
362,	-1.4166666667,	0.0506102373,	0.3888888889
363,	-1.3333333333,	0.0466711760,	0.3888888889
364,	-1.2500000000,	0.0372006590,	0.3888888889
365,	-1.7500000000,	0.0267857143,	0.3888888889
366,	-1.6666666667,	0.0267857143,	0.3888888889
367,	-1.5833333333,	0.0267857143,	0.3888888889
368,	-1.5000000000,	0.0267857143,	0.3888888889
369,	-1.4166666667,	0.0267857143,	0.3888888889
370,	-1.3333333333,	0.0267857143,	0.3888888889
371,	-1.2500000000,	0.0267857143,	0.3888888889
372,	-1.7500000000,	0.0163707695,	0.3888888889
373,	-1.6666666667,	0.0069002525,	0.3888888889
374,	-1.5833333333,	0.0029611913,	0.3888888889
375,	-1.5000000000,	0.0017857143,	0.3888888889
376,	-1.4166666667,	0.0029611913,	0.3888888889
377,	-1.3333333333,	0.0069002525,	0.3888888889
378,	-1.2500000000,	0.0163707695,	0.3888888889
379,	-1.7500000000,	0.0372001520,	0.5001027741
380,	-1.6666666667,	0.0466702078,	0.5001962286
381,	-1.5833333333,	0.0506090773,	0.5002350990
382,	-1.5000000000,	0.0517844971,	0.5002466985
383,	-1.4166666667,	0.0506090773,	0.5002350990
384,	-1.3333333333,	0.0466702078,	0.5001962286
385,	-1.2500000000,	0.0372001520,	0.5001027741
386,	-1.7500000000,	0.0267857143,	0.5000000000
387,	-1.6666666667,	0.0267857143,	0.5000000000
388,	-1.5833333333,	0.0267857143,	0.5000000000
389,	-1.5000000000,	0.0267857143,	0.5000000000
390,	-1.4166666667,	0.0267857143,	0.5000000000
391,	-1.3333333333,	0.0267857143,	0.5000000000
392,	-1.2500000000,	0.0267857143,	0.5000000000
393,	-1.7500000000,	0.0163712766,	0.4998972259
394,	-1.6666666667,	0.0069012208,	0.4998037714
395,	-1.5833333333,	0.0029623513,	0.4997649010
396,	-1.5000000000,	0.0017869315,	0.4997533015
397,	-1.4166666667,	0.0029623513,	0.4997649010
398,	-1.3333333333,	0.0069012208,	0.4998037714
399,	-1.2500000000,	0.0163712766,	0.4998972259
400,	-1.7500000000,	0.0346222600,	0.6498844541
401,	-1.6666666667,	0.0440869733,	0.6502159593
402,	-1.5833333333,	0.0480236206,	0.6503538419
403,	-1.5000000000,	0.0491983772,	0.6503949882
404,	-1.4166666667,	0.0480236206,	0.6503538419
405,	-1.3333333333,	0.0440869733,	0.6502159593
406,	-1.2500000000,	0.0346222600,	0.6498844541
407,	-1.7500000000,	0.0242136978,	0.6495198903
408,	-1.6666666667,	0.0242136978,	0.6495198903
409,	-1.5833333333,	0.0242136978,	0.6495198903
410,	-1.5000000000,	0.0242136978,	0.6495198903
411,	-1.4166666667,	0.0242136978,	0.6495198903
412,	-1.3333333333,	0.0242136978,	0.6495198903
413,	-1.2500000000,	0.0242136978,	0.6495198903
414,	-1.7500000000,	0.0138051356,	0.6491553264
415,	-1.6666666667,	0.0043404224,	0.6488238212
416,	-1.5833333333,	0.0004037751,	0.6486859387
417,	-1.5000000000,	-0.0007709816,	0.6486447924
418,	-1.4166666667,	0.0004037751,	0.6486859387
419,	-1.3333333333,	0.0043404224,	0.6488238212
420,	-1.2500000000,	0.0138051356,	0.6491553264
421,	-1.7500000000,	0.0277053770,	0.7710265602
422,	-1.6666666667,	0.0371483767,	0.7717479819
423,	-1.5833333333,	0.0410759927,	0.7720480420
424,	-1.5000000000,	0.0422480543,	0.7721375846
425,	-1.4166666667,	0.0410759927,	0.7720480420
426,	-1.3333333333,	0.0371483767,	0.7717479819
427,	-1.2500000000,	0.0277053770,	0.7710265602
428,	-1.7500000000,	0.0173206937,	0.7702331962
429,	-1.6666666667,	0.0173206937,	0.7702331962
430,	-1.5833333333,	0.0173206937,	0.7702331962
431,	-1.5000000000,	0.0173206937,	0.7702331962
432,	-1.4166666667,	0.0173206937,	0.7702331962
433,	-1.3333333333,	0.0173206937,	0.7702331962
434,	-1.2500000000,	0.0173206937,	0.7702331962
435,	-1.7500000000,	0.0069360104,	0.7694398322
436,	-1.6666666667,	-0.0025069893,	0.7687184104
437,	-1.5833333333,	-0.0064346053,	0.7684183503
438,	-1.5000000000,	-0.0076066669,	0.7683288077
439,	-1.4166666667,	-0.0064346053,	0.7684183503
440,	-1.3333333333,	-0.0025069893,	0.7687184104
441,	-1.2500000000,	0.0069360104,	0.7694398322
442,	-1.7500000000,	0.0176867730,	0.8715710529
443,	-1.6666666667,	0.0270941454,	0.8726628574
444,	-1.5833333333,	0.0310069430,	0.8731169704
445,	-1.5000000000,	0.0321745825,	0.8732524848
446,	-1.4166666667,	0.0310069430,	0.8731169704
447,	-1.3333333333,	0.0270941454,	0.8726628574
448,	-1.2500000000,	0.0176867730,	0.8715710529
449,	-1.7500000000,	0.0073412698,	0.8703703704
450,	-1.6666666667,	0.0073412698,	0.8703703704
451,	-1.5833333333,	0.0073412698,	0.8703703704
452,	-1.5000000000,	0.0073412698,	0.8703703704
453,	-1.4166666667,	0.0073412698,	0.8703703704
454,	-1.3333333333,	0.0073412698,	0.8703703704
455,	-1.2500000000,	0.0073412698,	0.8703703704
456,	-1.7500000000,	-0.0030042333,	0.8691696879
457,	-1.6666666667,	-0.0124116057,	0.8680778834
458,	-1.5833333333,	-0.0163244033,	0.8676237703
459,	-1.5000000000,	-0.0174920428,	0.8674882560
460,	-1.4166666667,	-0.0163244033,	0.8676237703
461,	-1.3333333333,	-0.0124116057,	0.8680778834
462,	-1.2500000000,	-0.0030042333,	0.8691696879
463,	-1.7500000000,	0.0058220705,	0.9596220556
464,	-1.6666666667,	0.0151990472,	0.9609498355
465,	-1.5833333333,	0.0190992024,	0.9615020975
466,	-1.5000000000,	0.0202630692,	0.9616669010
467,	-1.4166666667,	0.0190992024,	0.9615020975
468,	-1.3333333333,	0.0151990472,	0.9609498355
469,	-1.2500000000,	0.0058220705,	0.9596220556
470,	-1.7500000000,	-0.0044900059,	0.9581618656
471,	-1.6666666667,	-0.0044900059,	0.9581618656
472,	-1.5833333333,	-0.0044900059,	0.9581618656
473,	-1.5000000000,	-0.0044900059,	0.9581618656
474,	-1.4166666667,	-0.0044900059,	0.9581618656
475,	-1.3333333333,	-0.0044900059,	0.9581618656
476,	-1.2500000000,	-0.0044900059,	0.9581618656
477,	-1.7500000000,	-0.0148020823,	0.9567016756
478,	-1.6666666667,	-0.0241790590,	0.9553738956
479,	-1.5833333333,	-0.0280792142,	0.9548216337
480,	-1.5000000000,	-0.0292430810,	0.9546568301
481,	-1.4166666667,	-0.0280792142,	0.9548216337
482,	-1.3333333333,	-0.0241790590,	0.9553738956
483,	-1.2500000000,	-0.0148020823,	0.9567016756
484,	-1.7500000000,	-0.0066264892,	1.0432983244
485,	-1.6666666667,	0.0027504876,	1.0446261044
486,	-1.5833333333,	0.0066506427,	1.0451783663
487,	-1.5000000000,	0.0078145095,	1.0453431699
488,	-1.4166666667,	0.0066506427,	1.0451783663
489,	-1.3333333333,	0.0027504876,	1.0446261044
490,	-1.2500000000,	-0.0066264892,	1.0432983244
491,	-1.7500000000,	-0.0169385655,	1.0418381344
492,	-1.6666666667,	-0.0169385655,	1.0418381344
493,	-1.5833333333,	-0.0169385655,	1.0418381344
494,	-1.5000000000,	-0.0169385655,	1.0418381344
495,	-1.4166666667,	-0.0169385655,	1.0418381344
496,	-1.3333333333,	-0.0169385655,	1.0418381344
497,	-1.2500000000,	-0.0169385655,	1.0418381344
498,	-1.7500000000,	-0.0272506419,	1.0403779444
499,	-1.6666666667,	-0.0366276187,	1.0390501645
500,	-1.5833333333,	-0.0405277738,	1.0384979025
501,	-1.5000000000,	-0.0416916406,	1.0383330990
502,	-1.4166666667,	-0.0405277738,	1.0384979025
503,	-1.3333333333,	-0.0366276187,	1.0390501645
504,	-1.2500000000,	-0.0272506419,	1.0403779444
505,	-1.7500000000,	-0.0184243381,	1.1308303121
506,	-1.6666666667,	-0.0090169657,	1.1319221166
507,	-1.5833333333,	-0.0051041681,	1.1323762297
508,	-1.5000000000,	-0.0039365286,	1.1325117440
509,	-1.4166666667,	-0.0051041681,	1.1323762297
510,	-1.3333333333,	-0.0090169657,	1.1319221166
511,	-1.2500000000,	-0.0184243381,	1.1308303121
512,	-1.7500000000,	-0.0287698413,	1.1296296296
513,	-1.6666666667,	-0.0287698413,	1.1296296296
514,	-1.5833333333,	-0.0287698413,	1.1296296296
515,	-1.5000000000,	-0.0287698413,	1.1296296296
516,	-1.4166666667,	-0.0287698413,	1.1296296296
517,	-1.3333333333,	-0.0287698413,	1.1296296296
518,	-1.2500000000,	-0.0287698413,	1.1296296296
519,	-1.7500000000,	-0.0391153444,	1.1284289471
520,	-1.6666666667,	-0.0485227168,	1.1273371426
521,	-1.5833333333,	-0.0524355144,	1.1268830296
522,	-1.5000000000,	-0.0536031539,	1.1267475152
523,	-1.4166666667,	-0.0524355144,	1.1268830296
524,	-1.3333333333,	-0.0485227168,	1.1273371426
525,	-1.2500000000,	-0.0391153444,	1.1284289471
526,	-1.7500000000,	-0.0283645818,	1.2305601678
527,	-1.6666666667,	-0.0189215821,	1.2312815896
528,	-1.5833333333,	-0.0149939661,	1.2315816497
529,	-1.5000000000,	-0.0138219046,	1.2316711923
530,	-1.4166666667,	-0.0149939661,	1.2315816497
531,	-1.3333333333,	-0.0189215821,	1.2312815896
532,	-1.2500000000,	-0.0283645818,	1.2305601678
533,	-1.7500000000,	-0.0387492651,	1.2297668038
534,	-1.6666666667,	-0.0387492651,	1.2297668038
535,	-1.5833333333,	-0.0387492651,	1.2297668038
536,	-1.5000000000,	-0.0387492651,	1.2297668038
537,	-1.4166666667,	-0.0387492651,	1.2297668038
538,	-1.3333333333,	-0.0387492651,	1.2297668038
539,	-1.2500000000,	-0.0387492651,	1.2297668038
540,	-1.7500000000,	-0.0491339485,	1.2289734398
541,	-1.6666666667,	-0.0585769481,	1.2282520181
542,	-1.5833333333,	-0.0625045642,	1.2279519580
543,	-1.5000000000,	-0.0636766257,	1.2278624154
544,	-1.4166666667,	-0.0625045642,	1.2279519580
545,	-1.3333333333,	-0.0585769481,	1.2282520181
546,	-1.2500000000,	-0.0491339485,	1.2289734398
547,	-1.7500000000,	-0.0352337070,	1.3508446736
548,	-1.6666666667,	-0.0257689938,	1.3511761788
549,	-1.5833333333,	-0.0218323465,	1.3513140613
550,	-1.5000000000,	-0.0206575899,	1.3513552076
551,	-1.4166666667,	-0.0218323465,	1.3513140613
552,	-1.3333333333,	-0.0257689938,	1.3511761788
553,	-1.2500000000,	-0.0352337070,	1.3508446736
554,	-1.7500000000,	-0.0456422693,	1.3504801097
555,	-1.6666666667,	-0.0456422693,	1.3504801097
556,	-1.5833333333,	-0.0456422693,	1.3504801097
557,	-1.5000000000,	-0.0456422693,	1.3504801097
558,	-1.4166666667,	-0.0456422693,	1.3504801097
559,	-1.3333333333,	-0.0456422693,	1.3504801097
560,	-1.2500000000,	-0.0456422693,	1.3504801097
561,	-1.7500000000,	-0.0560508315,	1.3501155459
562,	-1.6666666667,	-0.0655155447,	1.3497840407
563,	-1.5833333333,	-0.0694521920,	1.3496461581
564,	-1.5000000000,	-0.0706269486,	1.3496050118
565,	-1.4166666667,	-0.0694521920,	1.3496461581
566,	-1.3333333333,	-0.0655155447,	1.3497840407
567,	-1.2500000000,	-0.0560508315,	1.3501155459
568,	-1.7500000000,	-0.0377993410,	1.5000000000
569,	-1.6666666667,	-0.0283288240,	1.5000000000
570,	-1.5833333333,	-0.0243897627,	1.5000000000
571,	-1.5000000000,	-0.0232142857,	1.5000000000
572,	-1.4166666667,	-0.0243897627,	1.5000000000
573,	-1.3333333333,	-0.0283288240,	1.5000000000
574,	-1.2500000000,	-0.0377993410,	1.5000000000
575,	-1.7500000000,	-0.0482142857,	1.5000000000
576,	-1.6666666667,	-0.0482142857,	1.5000000000
577,	-1.5833333333,	-0.0482142857,	1.5000000000
578,	-1.5000000000,	-0.0482142857,	1.5000000000
579,	-1.4166666667,	-0.0482142857,	1.5000000000
580,	-1.3333333333,	-0.0482142857,	1.5000000000
581,	-1.2500000000,	-0.0482142857,	1.5000000000
582,	-1.7500000000,	-0.0586292305,	1.5000000000
583,	-1.6666666667,	-0.0680997475,	1.5000000000
584,	-1.5833333333,	-0.0720388087,	1.5000000000
585,	-1.5000000000,	-0.0732142857,	1.5000000000
586,	-1.4166666667,	-0.0720388087,	1.5000000000
587,	-1.3333333333,	-0.0680997475,	1.5000000000
588,	-1.2500000000,	-0.0586292305,	1.5000000000
589,	-0.7500000000,	-0.0270850552,	-1.5000000000
590,	-0.6666666667,	-0.0176145383,	-1.5000000000
591,	-0.5833333333,	-0.0136754770,	-1.5000000000
592,	-0.5000000000,	-0.0125000000,	-1.5000000000
593,	-0.4166666667,	-0.0136754770,	-1.5000000000
594,	-0.3333333333,	-0.0176145383,	-1.5000000000
595,	-0.2500000000,	-0.0270850552,	-1.5000000000
596,	-0.7500000000,	-0.0375000000,	-1.5000000000
597,	-0.6666666667,	-0.0375000000,	-1.5000000000
598,	-0.5833333333,	-0.0375000000,	-1.5000000000
599,	-0.5000000000,	-0.0375000000,	-1.5000000000
600,	-0.4166666667,	-0.0375000000,	-1.5000000000
601,	-0.3333333333,	-0.0375000000,	-1.5000000000
602,	-0.2500000000,	-0.0375000000,	-1.5000000000
603,	-0.7500000000,	-0.0479149448,	-1.5000000000
604,	-0.6666666667,	-0.0573854617,	-1.5000000000
605,	-0.5833333333,	-0.0613245230,	-1.5000000000
606,	-0.5000000000,	-0.0625000000,	-1.5000000000
607,	-0.4166666667,	-0.0613245230,	-1.5000000000
608,	-0.3333333333,	-0.0573854617,	-1.5000000000
609,	-0.2500000000,	-0.0479149448,	-1.5000000000
610,	-0.7500000000,	-0.0270850552,	-1.3888888889
611,	-0.6666666667,	-0.0176145383,	-1.3888888889
612,	-0.5833333333,	-0.0136754770,	-1.3888888889
613,	-0.5000000000,	-0.0125000000,	-1.3888888889
614,	-0.4166666667,	-0.0136754770,	-1.3888888889
615,	-0.3333333333,	-0.0176145383,	-1.3888888889
616,	-0.2500000000,	-0.0270850552,	-1.3888888889
617,	-0.7500000000,	-0.0375000000,	-1.3888888889
618,	-0.6666666667,	-0.0375000000,	-1.3888888889
619,	-0.5833333333,	-0.0375000000,	-1.3888888889
620,	-0.5000000000,	-0.0375000000,	-1.3888888889
621,	-0.4166666667,	-0.0375000000,	-1.3888888889
622,	-0.3333333333,	-0.0375000000,	-1.3888888889
623,	-0.2500000000,	-0.0375000000,	-1.3888888889
624,	-0.7500000000,	-0.0479149448,	-1.3888888889
625,	-0.6666666667,	-0.0573854617,	-1.3888888889
626,	-0.5833333333,	-0.0613245230,	-1.3888888889
627,	-0.5000000000,	-0.0625000000,	-1.3888888889
628,	-0.4166666667,	-0.0613245230,	-1.3888888889
629,	-0.3333333333,	-0.0573854617,	-1.3888888889
630,	-0.2500000000,	-0.0479149448,	-1.3888888889
631,	-0.7500000000,	-0.0270850552,	-1.2777777778
632,	-0.6666666667,	-0.0176145383,	-1.2777777778
633,	-0.5833333333,	-0.0136754770,	-1.2777777778
634,	-0.5000000000,	-0.0125000000,	-1.2777777778
635,	-0.4166666667,	-0.0136754770,	-1.2777777778
636,	-0.3333333333,	-0.0176145383,	-1.2777777778
637,	-0.2500000000,	-0.0270850552,	-1.2777777778
638,	-0.7500000000,	-0.0375000000,	-1.2777777778
639,	-0.6666666667,	-0.0375000000,	-1.2777777778
640,	-0.5833333333,	-0.0375000000,	-1.2777777778
641,	-0.5000000000,	-0.0375000000,	-1.2777777778
642,	-0.4166666667,	-0.0375000000,	-1.2777777778
643,	-0.3333333333,	-0.0375000000,	-1.2777777778
644,	-0.2500000000,	-0.0375000000,	-1.2777777778
645,	-0.7500000000,	-0.0479149448,	-1.2777777778
646,	-0.6666666667,	-0.0573854617,	-1.2777777778
647,	-0.5833333333,	-0.0613245230,	-1.2777777778
648,	-0.5000000000,	-0.0625000000,	-1.2777777778
649,	-0.4166666667,	-0.0613245230,	-1.2777777778
650,	-0.3333333333,	-0.0573854617,	-1.2777777778
651,	-0.2500000000,	-0.0479149448,	-1.2777777778
652,	-0.7500000000,	-0.0270850552,	-1.1666666667
653,	-0.6666666667,	-0.0176145383,	-1.1666666667
654,	-0.5833333333,	-0.0136754770,	-1.1666666667
655,	-0.5000000000,	-0.0125000000,	-1.1666666667
656,	-0.4166666667,	-0.0136754770,	-1.1666666667
657,	-0.3333333333,	-0.0176145383,	-1.1666666667
658,	-0.2500000000,	-0.0270850552,	-1.1666666667
659,	-0.7500000000,	-0.0375000000,	-1.1666666667
660,	-0.6666666667,	-0.0375000000,	-1.1666666667
661,	-0.5833333333,	-0.0375000000,	-1.1666666667
662,	-0.5000000000,	-0.0375000000,	-1.1666666667
663,	-0.4166666667,	-0.0375000000,	-1.1666666667
664,	-0.3333333333,	-0.0375000000,	-1.1666666667
665,	-0.2500000000,	-0.0375000000,	-1.1666666667
666,	-0.7500000000,	-0.0479149448,	-1.1666666667
667,	-0.6666666667,	-0.0573854617,	-1.1666666667
668,	-0.5833333333,	-0.0613245230,	-1.1666666667
669,	-0.5000000000,	-0.0625000000,	-1.1666666667
670,	-0.4166666667,	-0.0613245230,	-1.1666666667
671,	-0.3333333333,	-0.0573854617,	-1.1666666667
672,	-0.2500000000,	-0.0479149448,	-1.1666666667
673,	-0.7500000000,	-0.0270850552,	-1.0555555556
674,	-0.6666666667,	-0.0176145383,	-1.0555555556
675,	-0.5833333333,	-0.0136754770,	-1.0555555556
676,	-0.5000000000,	-0.0125000000,	-1.0555555556
677,	-0.4166666667,	-0.0136754770,	-1.0555555556
678,	-0.3333333333,	-0.0176145383,	-1.0555555556
679,	-0.2500000000,	-0.0270850552,	-1.0555555556
680,	-0.7500000000,	-0.0375000000,	-1.0555555556
681,	-0.6666666667,	-0.0375000000,	-1.0555555556
682,	-0.5833333333,	-0.0375000000,	-1.0555555556
683,	-0.5000000000,	-0.0375000000,	-1.0555555556
684,	-0.4166666667,	-0.0375000000,	-1.0555555556
685,	-0.3333333333,	-0.0375000000,	-1.0555555556
686,	-0.2500000000,	-0.0375000000,	-1.0555555556
687,	-0.7500000000,	-0.0479149448,	-1.0555555556
688,	-0.6666666667,	-0.0573854617,	-1.0555555556
689,	-0.5833333333,	-0.0613245230,	-1.0555555556
690,	-0.5000000000,	-0.0625000000,	-1.0555555556
691,	-0.4166666667,	-0.0613245230,	-1.0555555556
692,	-0.3333333333,	-0.0573854617,	-1.0555555556
693,	-0.2500000000,	-0.0479149448,	-1.0555555556
694,	-0.7500000000,	-0.0270850552,	-0.9444444444
695,	-0.6666666667,	-0.0176145383,	-0.9444444444
696,	-0.5833333333,	-0.0136754770,	-0.9444444444
697,	-0.5000000000,	-0.0125000000,	-0.9444444444
698,	-0.4166666667,	-0.0136754770,	-0.9444444444
699,	-0.3333333333,	-0.0176145383,	-0.9444444444
700,	-0.2500000000,	-0.0270850552,	-0.9444444444
701,	-0.7500000000,	-0.0375000000,	-0.9444444444
702,	-0.6666666667,	-0.0375000000,	-0.9444444444
703,	-0.5833333333,	-0.0375000000,	-0.9444444444
704,	-0.5000000000,	-0.0375000000,	-0.9444444444
705,	-0.4166666667,	-0.0375000000,	-0.9444444444
706,	-0.3333333333,	-0.0375000000,	-0.9444444444
707,	-0.2500000000,	-0.0375000000,	-0.9444444444
708,	-0.7500000000,	-0.0479149448,	-0.9444444444
709,	-0.6666666667,	-0.0573854617,	-0.9444444444
710,	-0.5833333333,	-0.0613245230,	-0.9444444444
711,	-0.5000000000,	-0.0625000000,	-0.9444444444
712,	-0.4166666667,	-0.0613245230,	-0.9444444444
713,	-0.3333333333,	-0.0573854617,	-0.9444444444
714,	-0.2500000000,	-0.0479149448,	-0.9444444444
715,	-0.7500000000,	-0.0270850552,	-0.8333333333
716,	-0.6666666667,	-0.0176145383,	-0.8333333333
717,	-0.5833333333,	-0.0136754770,	-0.8333333333
718,	-0.5000000000,	-0.0125000000,	-0.8333333333
719,	-0.4166666667,	-0.0136754770,	-0.8333333333
720,	-0.3333333333,	-0.0176145383,	-0.8333333333
721,	-0.2500000000,	-0.0270850552,	-0.8333333333
722,	-0.7500000000,	-0.0375000000,	-0.8333333333
723,	-0.6666666667,	-0.0375000000,	-0.8333333333
724,	-0.5833333333,	-0.0375000000,	-0.8333333333
725,	-0.5000000000,	-0.0375000000,	-0.8333333333
726,	-0.4166666667,	-0.0375000000,	-0.8333333333
727,	-0.3333333333,	-0.0375000000,	-0.8333333333
728,	-0.2500000000,	-0.0375000000,	-0.8333333333
729,	-0.7500000000,	-0.0479149448,	-0.8333333333
730,	-0.6666666667,	-0.0573854617,	-0.8333333333
731,	-0.5833333333,	-0.0613245230,	-0.8333333333
732,	-0.5000000000,	-0.0625000000,	-0.8333333333
733,	-0.4166666667,	-0.0613245230,	-0.8333333333
734,	-0.3333333333,	-0.0573854617,	-0.8333333333
735,	-0.2500000000,	-0.0479149448,	-0.8333333333
736,	-0.7500000000,	-0.0270850552,	-0.7222222222
737,	-0.6666666667,	-0.0176145383,	-0.7222222222
738,	-0.5833333333,	-0.0136754770,	-0.7222222222
739,	-0.5000000000,	-0.0125000000,	-0.7222222222
740,	-0.4166666667,	-0.0136754770,	-0.7222222222
741,	-0.3333333333,	-0.0176145383,	-0.7222222222
742,	-0.2500000000,	-0.0270850552,	-0.7222222222
743,	-0.7500000000,	-0.0375000000,	-0.7222222222
744,	-0.6666666667,	-0.0375000000,	-0.7222222222
745,	-0.5833333333,	-0.0375000000,	-0.7222222222
746,	-0.5000000000,	-0.0375000000,	-0.7222222222
747,	-0.4166666667,	-0.0375000000,	-0.7222222222
748,	-0.3333333333,	-0.0375000000,	-0.7222222222
749,	-0.2500000000,	-0.0375000000,	-0.7222222222
750,	-0.7500000000,	-0.0479149448,	-0.7222222222
751,	-0.6666666667,	-0.0573854617,	-0.7222222222
752,	-0.5833333333,	-0.0613245230,	-0.7222222222
753,	-0.5000000000,	-0.0625000000,	-0.7222222222
754,	-0.4166666667,	-0.0613245230,	-0.7222222222
755,	-0.3333333333,	-0.0573854617,	-0.7222222222
756,	-0.2500000000,	-0.0479149448,	-0.7222222222
757,	-0.7500000000,	-0.0270850552,	-0.6111111111
758,	-0.6666666667,	-0.0176145383,	-0.6111111111
759,	-0.5833333333,	-0.0136754770,	-0.6111111111
760,	-0.5000000000,	-0.0125000000,	-0.6111111111
761,	-0.4166666667,	-0.0136754770,	-0.6111111111
762,	-0.3333333333,	-0.0176145383,	-0.6111111111
763,	-0.2500000000,	-0.0270850552,	-0.6111111111
764,	-0.7500000000,	-0.0375000000,	-0.6111111111
765,	-0.6666666667,	-0.0375000000,	-0.6111111111
766,	-0.5833333333,	-0.0375000000,	-0.6111111111
767,	-0.5000000000,	-0.0375000000,	-0.6111111111
768,	-0.4166666667,	-0.0375000000,	-0.6111111111
769,	-0.3333333333,	-0.0375000000,	-0.6111111111
770,	-0.2500000000,	-0.0375000000,	-0.6111111111
771,	-0.7500000000,	-0.0479149448,	-0.6111111111
772,	-0.6666666667,	-0.0573854617,	-0.6111111111
773,	-0.5833333333,	-0.0613245230,	-0.6111111111
774,	-0.5000000000,	-0.0625000000,	-0.6111111111
775,	-0.4166666667,	-0.0613245230,	-0.6111111111
776,	-0.3333333333,	-0.0573854617,	-0.6111111111
777,	-0.2500000000,	-0.0479149448,	-0.6111111111
778,	-0.7500000000,	-0.0270855623,	-0.5001027741
779,	-0.6666666667,	-0.0176155065,	-0.5001962286
780,	-0.5833333333,	-0.0136766370,	-0.5002350990
781,	-0.5000000000,	-0.0125012172,	-0.5002466985
782,	-0.4166666667,	-0.0136766370,	-0.5002350990
783,	-0.3333333333,	-0.0176155065,	-0.5001962286
784,	-0.2500000000,	-0.0270855623,	-0.5001027741
785,	-0.7500000000,	-0.0375000000,	-0.5000000000
786,	-0.6666666667,	-0.0375000000,	-0.5000000000
787,	-0.5833333333,	-0.0375000000,	-0.5000000000
788,	-0.5000000000,	-0.0375000000,	-0.5000000000
789,	-0.4166666667,	-0.0375000000,	-0.5000000000
790,	-0.3333333333,	-0.0375000000,	-0.5000000000
791,	-0.2500000000,	-0.0375000000,	-0.5000000000
792,	-0.7500000000,	-0.0479144377,	-0.4998972259
793,	-0.6666666667,	-0.0573844935,	-0.4998037714
794,	-0.5833333333,	-0.0613233630,	-0.4997649010
795,	-0.5000000000,	-0.0624987828,	-0.4997533015
796,	-0.4166666667,	-0.0613233630,	-0.4997649010
797,	-0.3333333333,	-0.0573844935,	-0.4998037714
798,	-0.2500000000,	-0.0479144377,	-0.4998972259
799,	-0.7500000000,	-0.0245194213,	-0.3508446736
800,	-0.6666666667,	-0.0150547081,	-0.3511761788
801,	-0.5833333333,	-0.0111180608,	-0.3513140613
802,	-0.5000000000,	-0.0099433042,	-0.3513552076
803,	-0.4166666667,	-0.0111180608,	-0.3513140613
804,	-0.3333333333,	-0.0150547081,	-0.3511761788
805,	-0.2500000000,	-0.0245194213,	-0.3508446736
806,	-0.7500000000,	-0.0349279835,	-0.3504801097
807,	-0.6666666667,	-0.0349279835,	-0.3504801097
808,	-0.5833333333,	-0.0349279835,	-0.3504801097
809,	-0.5000000000,	-0.0349279835,	-0.3504801097
810,	-0.4166666667,	-0.0349279835,	-0.3504801097
811,	-0.3333333333,	-0.0349279835,	-0.3504801097
812,	-0.2500000000,	-0.0349279835,	-0.3504801097
813,	-0.7500000000,	-0.0453365458,	-0.3501155459
814,	-0.6666666667,	-0.0548012590,	-0.3497840407
815,	-0.5833333333,	-0.0587379063,	-0.3496461581
816,	-0.5000000000,	-0.0599126629,	-0.3496050118
817,	-0.4166666667,	-0.0587379063,	-0.3496461581
818,	-0.3333333333,	-0.0548012590,	-0.3497840407
819,	-0.2500000000,	-0.0453365458,	-0.3501155459
820,	-0.7500000000,	-0.0176502961,	-0.2305601678
821,	-0.6666666667,	-0.0082072964,	-0.2312815896
822,	-0.5833333333,	-0.0042796804,	-0.2315816497
823,	-0.5000000000,	-0.0031076189,	-0.2316711923
824,	-0.4166666667,	-0.0042796804,	-0.2315816497
825,	-0.3333333333,	-0.0082072964,	-0.2312815896
826,	-0.2500000000,	-0.0176502961,	-0.2305601678
827,	-0.7500000000,	-0.0280349794,	-0.2297668038
828,	-0.6666666667,	-0.0280349794,	-0.2297668038
829,	-0.5833333333,	-0.0280349794,	-0.2297668038
830,	-0.5000000000,	-0.0280349794,	-0.2297668038
831,	-0.4166666667,	-0.0280349794,	-0.2297668038
832,	-0.3333333333,	-0.0280349794,	-0.2297668038
833,	-0.2500000000,	-0.0280349794,	-0.2297668038
834,	-0.7500000000,	-0.0384196628,	-0.2289734398
835,	-0.6666666667,	-0.0478626624,	-0.2282520181
836,	-0.5833333333,	-0.0517902784,	-0.2279519580
837,	-0.5000000000,	-0.0529623400,	-0.2278624154
838,	-0.4166666667,	-0.0517902784,	-0.2279519580
839,	-0.3333333333,	-0.0478626624,	-0.2282520181
840,	-0.2500000000,	-0.0384196628,	-0.2289734398
841,	-0.7500000000,	-0.0077100524,	-0.1308303121
842,	-0.6666666667,	0.0016973200,	-0.1319221166
843,	-0.5833333333,	0.0056101176,	-0.1323762297
844,	-0.5000000000,	0.0067777571,	-0.1325117440
845,	-0.4166666667,	0.0056101176,	-0.1323762297
846,	-0.3333333333,	0.0016973200,	-0.1319221166
847,	-0.2500000000,	-0.0077100524,	-0.1308303121
848,	-0.7500000000,	-0.0180555556,	-0.1296296296
849,	-0.6666666667,	-0.0180555556,	-0.1296296296
850,	-0.5833333333,	-0.0180555556,	-0.1296296296
851,	-0.5000000000,	-0.0180555556,	-0.1296296296
852,	-0.4166666667,	-0.0180555556,	-0.1296296296
853,	-0.3333333333,	-0.0180555556,	-0.1296296296
854,	-0.2500000000,	-0.0180555556,	-0.1296296296
855,	-0.7500000000,	-0.0284010587,	-0.1284289471
856,	-0.6666666667,	-0.0378084311,	-0.1273371426
857,	-0.5833333333,	-0.0417212287,	-0.1268830296
858,	-0.5000000000,	-0.0428888682,	-0.1267475152
859,	-0.4166666667,	-0.0417212287,	-0.1268830296
860,	-0.3333333333,	-0.0378084311,	-0.1273371426
861,	-0.2500000000,	-0.0284010587,	-0.1284289471
862,	-0.7500000000,	0.0040877966,	-0.0432983244
863,	-0.6666666667,	0.0134647733,	-0.0446261044
864,	-0.5833333333,	0.0173649285,	-0.0451783663
865,	-0.5000000000,	0.0185287953,	-0.0453431699
866,	-0.4166666667,	0.0173649285,	-0.0451783663
867,	-0.3333333333,	0.0134647733,	-0.0446261044
868,	-0.2500000000,	0.0040877966,	-0.0432983244
869,	-0.7500000000,	-0.0062242798,	-0.0418381344
870,	-0.6666666667,	-0.0062242798,	-0.0418381344
871,	-0.5833333333,	-0.0062242798,	-0.0418381344
872,	-0.5000000000,	-0.0062242798,	-0.0418381344
873,	-0.4166666667,	-0.0062242798,	-0.0418381344
874,	-0.3333333333,	-0.0062242798,	-0.0418381344
875,	-0.2500000000,	-0.0062242798,	-0.0418381344
876,	-0.7500000000,	-0.0165363562,	-0.0403779444
877,	-0.6666666667,	-0.0259133329,	-0.0390501645
878,	-0.5833333333,	-0.0298134881,	-0.0384979025
879,	-0.5000000000,	-0.0309773549,	-0.0383330990
880,	-0.4166666667,	-0.0298134881,	-0.0384979025
881,	-0.3333333333,	-0.0259133329,	-0.0390501645
882,	-0.2500000000,	-0.0165363562,	-0.0403779444
883,	-0.7500000000,	0.0165363562,	0.0403779444
884,	-0.6666666667,	0.0259133329,	0.0390501645
885,	-0.5833333333,	0.0298134881,	0.0384979025
886,	-0.5000000000,	0.0309773549,	0.0383330990
887,	-0.4166666667,	0.0298134881,	0.0384979025
888,	-0.3333333333,	0.0259133329,	0.0390501645
889,	-0.2500000000,	0.0165363562,	0.0403779444
890,	-0.7500000000,	0.0062242798,	0.0418381344
891,	-0.6666666667,	0.0062242798,	0.0418381344
892,	-0.5833333333,	0.0062242798,	0.0418381344
893,	-0.5000000000,	0.0062242798,	0.0418381344
894,	-0.4166666667,	0.0062242798,	0.0418381344
895,	-0.3333333333,	0.0062242798,	0.0418381344
896,	-0.2500000000,	0.0062242798,	0.0418381344
897,	-0.7500000000,	-0.0040877966,	0.0432983244
898,	-0.6666666667,	-0.0134647733,	0.0446261044
899,	-0.5833333333,	-0.0173649285,	0.0451783663
900,	-0.5000000000,	-0.0185287953,	0.0453431699
901,	-0.4166666667,	-0.0173649285,	0.0451783663
902,	-0.3333333333,	-0.0134647733,	0.0446261044
903,	-0.2500000000,	-0.0040877966,	0.0432983244
904,	-0.7500000000,	0.0284010587,	0.1284289471
905,	-0.6666666667,	0.0378084311,	0.1273371426
906,	-0.5833333333,	0.0417212287,	0.1268830296
907,	-0.5000000000,	0.0428888682,	0.1267475152
908,	-0.4166666667,	0.0417212287,	0.1268830296
909,	-0.3333333333,	0.0378084311,	0.1273371426
910,	-0.2500000000,	0.0284010587,	0.1284289471
911,	-0.7500000000,	0.0180555556,	0.1296296296
912,	-0.6666666667,	0.0180555556,	0.1296296296
913,	-0.5833333333,	0.0180555556,	0.1296296296
914,	-0.5000000000,	0.0180555556,	0.1296296296
915,	-0.4166666667,	0.0180555556,	0.1296296296
916,	-0.3333333333,	0.0180555556,	0.1296296296
917,	-0.2500000000,	0.0180555556,	0.1296296296
918,	-0.7500000000,	0.0077100524,	0.1308303121
919,	-0.6666666667,	-0.0016973200,	0.1319221166
920,	-0.5833333333,	-0.0056101176,	0.1323762297
921,	-0.5000000000,	-0.0067777571,	0.1325117440
922,	-0.4166666667,	-0.0056101176,	0.1323762297
923,	-0.3333333333,	-0.0016973200,	0.1319221166
924,	-0.2500000000,	0.0077100524,	0.1308303121
925,	-0.7500000000,	0.0384196628,	0.2289734398
926,	-0.6666666667,	0.0478626624,	0.2282520181
927,	-0.5833333333,	0.0517902784,	0.2279519580
928,	-0.5000000000,	0.0529623400,	0.2278624154
929,	-0.4166666667,	0.0517902784,	0.2279519580
930,	-0.3333333333,	0.0478626624,	0.2282520181
931,	-0.2500000000,	0.0384196628,	0.2289734398
932,	-0.7500000000,	0.0280349794,	0.2297668038
933,	-0.6666666667,	0.0280349794,	0.2297668038
934,	-0.5833333333,	0.0280349794,	0.2297668038
935,	-0.5000000000,	0.0280349794,	0.2297668038
936,	-0.4166666667,	0.0280349794,	0.2297668038
937,	-0.3333333333,	0.0280349794,	0.2297668038
938,	-0.2500000000,	0.0280349794,	0.2297668038
939,	-0.7500000000,	0.0176502961,	0.2305601678
940,	-0.6666666667,	0.0082072964,	0.2312815896
941,	-0.5833333333,	0.0042796804,	0.2315816497
942,	-0.5000000000,	0.0031076189,	0.2316711923
943,	-0.4166666667,	0.0042796804,	0.2315816497
944,	-0.3333333333,	0.0082072964,	0.2312815896
945,	-0.2500000000,	0.0176502961,	0.2305601678
946,	-0.7500000000,	0.0453365458,	0.3501155459
947,	-0.6666666667,	0.0548012590,	0.3497840407
948,	-0.5833333333,	0.0587379063,	0.3496461581
949,	-0.5000000000,	0.0599126629,	0.3496050118
950,	-0.4166666667,	0.0587379063,	0.3496461581
951,	-0.3333333333,	0.0548012590,	0.3497840407
952,	-0.2500000000,	0.0453365458,	0.3501155459
953,	-0.7500000000,	0.0349279835,	0.3504801097
954,	-0.6666666667,	0.0349279835,	0.3504801097
955,	-0.5833333333,	0.0349279835,	0.3504801097
956,	-0.5000000000,	0.0349279835,	0.3504801097
957,	-0.4166666667,	0.0349279835,	0.3504801097
958,	-0.3333333333,	0.0349279835,	0.3504801097
959,	-0.2500000000,	0.0349279835,	0.3504801097
960,	-0.7500000000,	0.0245194213,	0.3508446736
961,	-0.6666666667,	0.0150547081,	0.3511761788
962,	-0.5833333333,	0.0111180608,	0.3513140613
963,	-0.5000000000,	0.0099433042,	0.3513552076
964,	-0.4166666667,	0.0111180608,	0.3513140613
965,	-0.3333333333,	0.0150547081,	0.3511761788
966,	-0.2500000000,	0.0245194213,	0.3508446736
967,	-0.7500000000,	0.0479144377,	0.4998972259
968,	-0.6666666667,	0.0573844935,	0.4998037714
969,	-0.5833333333,	0.0613233630,	0.4997649010
970,	-0.5000000000,	0.0624987828,	0.4997533015
971,	-0.4166666667,	0.0613233630,	0.4997649010
972,	-0.3333333333,	0.0573844935,	0.4998037714
973,	-0.2500000000,	0.0479144377,	0.4998972259
974,	-0.7500000000,	0.0375000000,	0.5000000000
975,	-0.6666666667,	0.0375000000,	0.5000000000
976,	-0.5833333333,	0.0375000000,	0.5000000000
977,	-0.5000000000,	0.0375000000,	0.5000000000
978,	-0.4166666667,	0.0375000000,	0.5000000000
979,	-0.3333333333,	0.0375000000,	0.5000000000
980,	-0.2500000000,	0.0375000000,	0.5000000000
981,	-0.7500000000,	0.0270855623,	0.5001027741
982,	-0.6666666667,	0.0176155065,	0.5001962286
983,	-0.5833333333,	0.0136766370,	0.5002350990
984,	-0.5000000000,	0.0125012172,	0.5002466985
985,	-0.4166666667,	0.0136766370,	0.5002350990
986,	-0.3333333333,	0.0176155065,	0.5001962286
987,	-0.2500000000,	0.0270855623,	0.5001027741
988,	-0.7500000000,	0.0479149448,	0.6111111111
989,	-0.6666666667,	0.0573854617,	0.6111111111
990,	-0.5833333333,	0.0613245230,	0.6111111111
991,	-0.5000000000,	0.0625000000,	0.6111111111
992,	-0.4166666667,	0.0613245230,	0.6111111111
993,	-0.3333333333,	0.0573854617,	0.6111111111
994,	-0.2500000000,	0.0479149448,	0.6111111111
995,	-0.7500000000,	0.0375000000,	0.6111111111
996,	-0.6666666667,	0.0375000000,	0.6111111111
997,	-0.5833333333,	0.0375000000,	0.6111111111
998,	-0.5000000000,	0.0375000000,	0.6111111111
999,	-0.4166666667,	0.0375000000,	0.6111111111
1000,	-0.3333333333,	0.0375000000,	0.6111111111
1001,	-0.2500000000,	0.0375000000,	0.6111111111
1002,	-0.7500000000,	0.0270850552,	0.6111111111
1003,	-0.6666666667,	0.0176145383,	0.6111111111
1004,	-0.5833333333,	0.0136754770,	0.6111111111
1005,	-0.5000000000,	0.0125000000,	0.6111111111
1006,	-0.4166666667,	0.0136754770,	0.6111111111
1007,	-0.3333333333,	0.0176145383,	0.6111111111
1008,	-0.2500000000,	0.0270850552,	0.6111111111
1009,	-0.7500000000,	0.0479149448,	0.7222222222
1010,	-0.6666666667,	0.0573854617,	0.7222222222
1011,	-0.5833333333,	0.0613245230,	0.7222222222
1012,	-0.5000000000,	0.0625000000,	0.7222222222
1013,	-0.4166666667,	0.0613245230,	0.7222222222
1014,	-0.3333333333,	0.0573854617,	0.7222222222
1015,	-0.2500000000,	0.0479149448,	0.7222222222
1016,	-0.7500000000,	0.0375000000,	0.7222222222
1017,	-0.6666666667,	0.0375000000,	0.7222222222
1018,	-0.5833333333,	0.0375000000,	0.7222222222
1019,	-0.5000000000,	0.0375000000,	0.7222222222
1020,	-0.4166666667,	0.0375000000,	0.7222222222
1021,	-0.3333333333,	0.0375000000,	0.7222222222
1022,	-0.2500000000,	0.0375000000,	0.7222222222
1023,	-0.7500000000,	0.0270850552,	0.7222222222
1024,	-0.6666666667,	0.0176145383,	0.7222222222
1025,	-0.5833333333,	0.0136754770,	0.7222222222
1026,	-0.5000000000,	0.0125000000,	0.7222222222
1027,	-0.4166666667,	0.0136754770,	0.7222222222
1028,	-0.3333333333,	0.0176145383,	0.7222222222
1029,	-0.2500000000,	0.0270850552,	0.7222222222
1030,	-0.7500000000,	0.0479149448,	0.8333333333
1031,	-0.6666666667,	0.0573854617,	0.8333333333
1032,	-0.5833333333,	0.0613245230,	0.8333333333
1033,	-0.5000000000,	0.0625000000,	0.8333333333
1034,	-0.4166666667,	0.0613245230,	0.8333333333
1035,	-0.3333333333,	0.0573854617,	0.8333333333
1036,	-0.2500000000,	0.0479149448,	0.8333333333
1037,	-0.7500000000,	0.0375000000,	0.8333333333
1038,	-0.6666666667,	0.0375000000,	0.8333333333
1039,	-0.5833333333,	0.0375000000,	0.8333333333
1040,	-0.5000000000,	0.0375000000,	0.8333333333
1041,	-0.4166666667,	0.0375000000,	0.8333333333
1042,	-0.3333333333,	0.0375000000,	0.8333333333
1043,	-0.2500000000,	0.0375000000,	0.8333333333
1044,	-0.7500000000,	0.0270850552,	0.8333333333
1045,	-0.6666666667,	0.0176145383,	0.8333333333
1046,	-0.5833333333,	0.0136754770,	0.8333333333
1047,	-0.5000000000,	0.0125000000,	0.8333333333
1048,	-0.4166666667,	0.0136754770,	0.8333333333
1049,	-0.3333333333,	0.0176145383,	0.8333333333
1050,	-0.2500000000,	0.0270850552,	0.8333333333
1051,	-0.7500000000,	0.0479149448,	0.9444444444
1052,	-0.6666666667,	0.0573854617,	0.9444444444
1053,	-0.5833333333,	0.0613245230,	0.9444444444
1054,	-0.5000000000,	0.0625000000,	0.9444444444
1055,	-0.4166666667,	0.0613245230,	0.9444444444
1056,	-0.3333333333,	0.0573854617,	0.9444444444
1057,	-0.2500000000,	0.0479149448,	0.9444444444
1058,	-0.7500000000,	0.0375000000,	0.9444444444
1059,	-0.6666666667,	0.0375000000,	0.9444444444
1060,	-0.5833333333,	0.0375000000,	0.9444444444
1061,	-0.5000000000,	0.0375000000,	0.9444444444
1062,	-0.4166666667,	0.0375000000,	0.9444444444
1063,	-0.3333333333,	0.0375000000,	0.9444444444
1064,	-0.2500000000,	0.0375000000,	0.9444444444
1065,	-0.7500000000,	0.0270850552,	0.9444444444
1066,	-0.6666666667,	0.0176145383,	0.9444444444
1067,	-0.5833333333,	0.0136754770,	0.9444444444
1068,	-0.5000000000,	0.0125000000,	0.9444444444
1069,	-0.4166666667,	0.0136754770,	0.9444444444
1070,	-0.3333333333,	0.0176145383,	0.9444444444
1071,	-0.2500000000,	0.0270850552,	0.9444444444
1072,	-0.7500000000,	0.0479149448,	1.0555555556
1073,	-0.6666666667,	0.0573854617,	1.0555555556
1074,	-0.5833333333,	0.0613245230,	1.0555555556
1075,	-0.5000000000,	0.0625000000,	1.0555555556
1076,	-0.4166666667,	0.0613245230,	1.0555555556
1077,	-0.3333333333,	0.0573854617,	1.0555555556
1078,	-0.2500000000,	0.0479149448,	1.0555555556
1079,	-0.7500000000,	0.0375000000,	1.0555555556
1080,	-0.6666666667,	0.0375000000,	1.0555555556
1081,	-0.5833333333,	0.0375000000,	1.0555555556
1082,	-0.5000000000,	0.0375000000,	1.0555555556
1083,	-0.4166666667,	0.0375000000,	1.0555555556
1084,	-0.3333333333,	0.0375000000,	1.0555555556
1085,	-0.2500000000,	0.0375000000,	1.0555555556
1086,	-0.7500000000,	0.0270850552,	1.0555555556
1087,	-0.6666666667,	0.0176145383,	1.0555555556
1088,	-0.5833333333,	0.0136754770,	1.0555555556
1089,	-0.5000000000,	0.0125000000,	1.0555555556
1090,	-0.4166666667,	0.0136754770,	1.0555555556
1091,	-0.3333333333,	0.0176145383,	1.0555555556
1092,	-0.2500000000,	0.0270850552,	1.0555555556
1093,	-0.7500000000,	0.0479149448,	1.1666666667
1094,	-0.6666666667,	0.0573854617,	1.1666666667
1095,	-0.5833333333,	0.0613245230,	1.1666666667
1096,	-0.5000000000,	0.0625000000,	1.1666666667
1097,	-0.4166666667,	0.0613245230,	1.1666666667
1098,	-0.3333333333,	0.0573854617,	1.1666666667
1099,	-0.2500000000,	0.0479149448,	1.1666666667
1100,	-0.7500000000,	0.0375000000,	1.1666666667
1101,	-0.6666666667,	0.0375000000,	1.1666666667
1102,	-0.5833333333,	0.0375000000,	1.1666666667
1103,	-0.5000000000,	0.0375000000,	1.1666666667
1104,	-0.4166666667,	0.0375000000,	1.1666666667
1105,	-0.3333333333,	0.0375000000,	1.1666666667
1106,	-0.2500000000,	0.0375000000,	1.1666666667
1107,	-0.7500000000,	0.0270850552,	1.1666666667
1108,	-0.6666666667,	0.0176145383,	1.1666666667
1109,	-0.5833333333,	0.0136754770,	1.1666666667
1110,	-0.5000000000,	0.0125000000,	1.1666666667
1111,	-0.4166666667,	0.0136754770,	1.1666666667
1112,	-0.3333333333,	0.0176145383,	1.1666666667
1113,	-0.2500000000,	0.0270850552,	1.1666666667
1114,	-0.7500000000,	0.0479149448,	1.2777777778
1115,	-0.6666666667,	0.0573854617,	1.2777777778
1116,	-0.5833333333,	0.0613245230,	1.2777777778
1117,	-0.5000000000,	0.0625000000,	1.2777777778
1118,	-0.4166666667,	0.0613245230,	1.2777777778
1119,	-0.3333333333,	0.0573854617,	1.2777777778
1120,	-0.2500000000,	0.0479149448,	1.2777777778
1121,	-0.7500000000,	0.0375000000,	1.2777777778
1122,	-0.6666666667,	0.0375000000,	1.2777777778
1123,	-0.5833333333,	0.0375000000,	1.2777777778
1124,	-0.5000000000,	0.0375000000,	1.2777777778
1125,	-0.4166666667,	0.0375000000,	1.2777777778
1126,	-0.3333333333,	0.0375000000,	1.2777777778
1127,	-0.2500000000,	0.0375000000,	1.2777777778
1128,	-0.7500000000,	0.0270850552,	1.2777777778
1129,	-0.6666666667,	0.0176145383,	1.2777777778
1130,	-0.5833333333,	0.0136754770,	1.2777777778
1131,	-0.5000000000,	0.0125000000,	1.2777777778
1132,	-0.4166666667,	0.0136754770,	1.2777777778
1133,	-0.3333333333,	0.0176145383,	1.2777777778
1134,	-0.2500000000,	0.0270850552,	1.2777777778
1135,	-0.7500000000,	0.0479149448,	1.3888888889
1136,	-0.6666666667,	0.0573854617,	1.3888888889
1137,	-0.5833333333,	0.0613245230,	1.3888888889
1138,	-0.5000000000,	0.0625000000,	1.3888888889
1139,	-0.4166666667,	0.0613245230,	1.3888888889
1140,	-0.3333333333,	0.0573854617,	1.3888888889
1141,	-0.2500000000,	0.0479149448,	1.3888888889
1142,	-0.7500000000,	0.0375000000,	1.3888888889
1143,	-0.6666666667,	0.0375000000,	1.3888888889
1144,	-0.5833333333,	0.0375000000,	1.3888888889
1145,	-0.5000000000,	0.0375000000,	1.3888888889
1146,	-0.4166666667,	0.0375000000,	1.3888888889
1147,	-0.3333333333,	0.0375000000,	1.3888888889
1148,	-0.2500000000,	0.0375000000,	1.3888888889
1149,	-0.7500000000,	0.0270850552,	1.3888888889
1150,	-0.6666666667,	0.0176145383,	1.3888888889
1151,	-0.5833333333,	0.0136754770,	1.3888888889
1152,	-0.5000000000,	0.0125000000,	1.3888888889
1153,	-0.4166666667,	0.0136754770,	1.3888888889
1154,	-0.3333333333,	0.0176145383,	1.3888888889
1155,	-0.2500000000,	0.0270850552,	1.3888888889
1156,	-0.7500000000,	0.0479149448,	1.5000000000
1157,	-0.6666666667,	0.0573854617,	1.5000000000
1158,	-0.5833333333,	0.0613245230,	1.5000000000
1159,	-0.5000000000,	0.0625000000,	1.5000000000
1160,	-0.4166666667,	0.0613245230,	1.5000000000
1161,	-0.3333333333,	0.0573854617,	1.5000000000
1162,	-0.2500000000,	0.0479149448,	1.5000000000
1163,	-0.7500000000,	0.0375000000,	1.5000000000
1164,	-0.6666666667,	0.0375000000,	1.5000000000
1165,	-0.5833333333,	0.0375000000,	1.5000000000
1166,	-0.5000000000,	0.0375000000,	1.5000000000
1167,	-0.4166666667,	0.0375000000,	1.5000000000
1168,	-0.3333333333,	0.0375000000,	1.5000000000
1169,	-0.2500000000,	0.0375000000,	1.5000000000
1170,	-0.7500000000,	0.0270850552,	1.5000000000
1171,	-0.6666666667,	0.0176145383,	1.5000000000
1172,	-0.5833333333,	0.0136754770,	1.5000000000
1173,	-0.5000000000,	0.0125000000,	1.5000000000
1174,	-0.4166666667,	0.0136754770,	1.5000000000
1175,	-0.3333333333,	0.0176145383,	1.5000000000
1176,	-0.2500000000,	0.0270850552,	1.5000000000
1177,	0.2500000000,	0.0586292305,	-1.5000000000
1178,	0.3333333333,	0.0680997475,	-1.5000000000
1179,	0.4166666667,	0.0720388087,	-1.5000000000
1180,	0.5000000000,	0.0732142857,	-1.5000000000
1181,	0.5833333333,	0.0720388087,	-1.5000000000
1182,	0.6666666667,	0.0680997475,	-1.5000000000
1183,	0.7500000000,	0.0586292305,	-1.5000000000
1184,	0.2500000000,	0.0482142857,	-1.5000000000
1185,	0.3333333333,	0.0482142857,	-1.5000000000
1186,	0.4166666667,	0.0482142857,	-1.5000000000
1187,	0.5000000000,	0.0482142857,	-1.5000000000
1188,	0.5833333333,	0.0482142857,	-1.5000000000
1189,	0.6666666667,	0.0482142857,	-1.5000000000
1190,	0.7500000000,	0.0482142857,	-1.5000000000
1191,	0.2500000000,	0.0377993410,	-1.5000000000
1192,	0.3333333333,	0.0283288240,	-1.5000000000
1193,	0.4166666667,	0.0243897627,	-1.5000000000
1194,	0.5000000000,	0.0232142857,	-1.5000000000
1195,	0.5833333333,	0.0243897627,	-1.5000000000
1196,	0.6666666667,	0.0283288240,	-1.5000000000
1197,	0.7500000000,	0.0377993410,	-1.5000000000
1198,	0.2500000000,	0.0560508315,	-1.3501155459
1199,	0.3333333333,	0.0655155447,	-1.3497840407
1200,	0.4166666667,	0.0694521920,	-1.3496461581
1201,	0.5000000000,	0.0706269486,	-1.3496050118
1202,	0.5833333333,	0.0694521920,	-1.3496461581
1203,	0.6666666667,	0.0655155447,	-1.3497840407
1204,	0.7500000000,	0.0560508315,	-1.3501155459
1205,	0.2500000000,	0.0456422693,	-1.3504801097
1206,	0.3333333333,	0.0456422693,	-1.3504801097
1207,	0.4166666667,	0.0456422693,	-1.3504801097
1208,	0.5000000000,	0.0456422693,	-1.3504801097
1209,	0.5833333333,	0.0456422693,	-1.3504801097
1210,	0.6666666667,	0.0456422693,	-1.3504801097
1211,	0.7500000000,	0.0456422693,	-1.3504801097
1212,	0.2500000000,	0.0352337070,	-1.3508446736
1213,	0.3333333333,	0.0257689938,	-1.3511761788
1214,	0.4166666667,	0.0218323465,	-1.3513140613
1215,	0.5000000000,	0.0206575899,	-1.3513552076
1216,	0.5833333333,	0.0218323465,	-1.3513140613
1217,	0.6666666667,	0.0257689938,	-1.3511761788
1218,	0.7500000000,	0.0352337070,	-1.3508446736
1219,	0.2500000000,	0.0491339485,	-1.2289734398
1220,	0.3333333333,	0.0585769481,	-1.2282520181
1221,	0.4166666667,	0.0625045642,	-1.2279519580
1222,	0.5000000000,	0.0636766257,	-1.2278624154
1223,	0.5833333333,	0.0625045642,	-1.2279519580
1224,	0.6666666667,	0.0585769481,	-1.2282520181
1225,	0.7500000000,	0.0491339485,	-1.2289734398
1226,	0.2500000000,	0.0387492651,	-1.2297668038
1227,	0.3333333333,	0.0387492651,	-1.2297668038
1228,	0.4166666667,	0.0387492651,	-1.2297668038
1229,	0.5000000000,	0.0387492651,	-1.2297668038
1230,	0.5833333333,	0.0387492651,	-1.2297668038
1231,	0.6666666667,	0.0387492651,	-1.2297668038
1232,	0.7500000000,	0.0387492651,	-1.2297668038
1233,	0.2500000000,	0.0283645818,	-1.2305601678
1234,	0.3333333333,	0.0189215821,	-1.2312815896
1235,	0.4166666667,	0.0149939661,	-1.2315816497
1236,	0.5000000000,	0.0138219046,	-1.2316711923
1237,	0.5833333333,	0.0149939661,	-1.2315816497
1238,	0.6666666667,	0.0189215821,	-1.2312815896
1239,	0.7500000000,	0.0283645818,	-1.2305601678
1240,	0.2500000000,	0.0391153444,	-1.1284289471
1241,	0.3333333333,	0.0485227168,	-1.1273371426
1242,	0.4166666667,	0.0524355144,	-1.1268830296
1243,	0.5000000000,	0.0536031539,	-1.1267475152
1244,	0.5833333333,	0.0524355144,	-1.1268830296
1245,	0.6666666667,	0.0485227168,	-1.1273371426
1246,	0.7500000000,	0.0391153444,	-1.1284289471
1247,	0.2500000000,	0.0287698413,	-1.1296296296
1248,	0.3333333333,	0.0287698413,	-1.1296296296
1249,	0.4166666667,	0.0287698413,	-1.1296296296
1250,	0.5000000000,	0.0287698413,	-1.1296296296
1251,	0.5833333333,	0.0287698413,	-1.1296296296
1252,	0.6666666667,	0.0287698413,	-1.1296296296
1253,	0.7500000000,	0.0287698413,	-1.1296296296
1254,	0.2500000000,	0.0184243381,	-1.1308303121
1255,	0.3333333333,	0.0090169657,	-1.1319221166
1256,	0.4166666667,	0.0051041681,	-1.1323762297
1257,	0.5000000000,	0.0039365286,	-1.1325117440
1258,	0.5833333333,	0.0051041681,	-1.1323762297
1259,	0.6666666667,	0.0090169657,	-1.1319221166
1260,	0.7500000000,	0.0184243381,	-1.1308303121
1261,	0.2500000000,	0.0272506419,	-1.0403779444
1262,	0.3333333333,	0.0366276187,	-1.0390501645
1263,	0.4166666667,	0.0405277738,	-1.0384979025
1264,	0.5000000000,	0.0416916406,	-1.0383330990
1265,	0.5833333333,	0.0405277738,	-1.0384979025
1266,	0.6666666667,	0.0366276187,	-1.0390501645
1267,	0.7500000000,	0.0272506419,	-1.0403779444
1268,	0.2500000000,	0.0169385655,	-1.0418381344
1269,	0.3333333333,	0.0169385655,	-1.0418381344
1270,	0.4166666667,	0.0169385655,	-1.0418381344
1271,	0.5000000000,	0.0169385655,	-1.0418381344
1272,	0.5833333333,	0.0169385655,	-1.0418381344
1273,	0.6666666667,	0.0169385655,	-1.0418381344
1274,	0.7500000000,	0.0169385655,	-1.0418381344
1275,	0.2500000000,	0.0066264892,	-1.0432983244
1276,	0.3333333333,	-0.0027504876,	-1.0446261044
1277,	0.4166666667,	-0.0066506427,	-1.0451783663
1278,	0.5000000000,	-0.0078145095,	-1.0453431699
1279,	0.5833333333,	-0.0066506427,	-1.0451783663
1280,	0.6666666667,	-0.0027504876,	-1.0446261044
1281,	0.7500000000,	0.0066264892,	-1.0432983244
1282,	0.2500000000,	0.0148020823,	-0.9567016756
1283,	0.3333333333,	0.0241790590,	-0.9553738956
1284,	0.4166666667,	0.0280792142,	-0.9548216337
1285,	0.5000000000,	0.0292430810,	-0.9546568301
1286,	0.5833333333,	0.0280792142,	-0.9548216337
1287,	0.6666666667,	0.0241790590,	-0.9553738956
1288,	0.7500000000,	0.0148020823,	-0.9567016756
1289,	0.2500000000,	0.0044900059,	-0.9581618656
1290,	0.3333333333,	0.0044900059,	-0.9581618656
1291,	0.4166666667,	0.0044900059,	-0.9581618656
1292,	0.5000000000,	0.0044900059,	-0.9581618656
1293,	0.5833333333,	0.0044900059,	-0.9581618656
1294,	0.6666666667,	0.0044900059,	-0.9581618656
1295,	0.7500000000,	0.0044900059,	-0.9581618656
1296,	0.2500000000,	-0.0058220705,	-0.9596220556
1297,	0.3333333333,	-0.0151990472,	-0.9609498355
1298,	0.4166666667,	-0.0190992024,	-0.9615020975
1299,	0.5000000000,	-0.0202630692,	-0.9616669010
1300,	0.5833333333,	-0.0190992024,	-0.9615020975
1301,	0.6666666667,	-0.0151990472,	-0.9609498355
1302,	0.7500000000,	-0.0058220705,	-0.9596220556
1303,	0.2500000000,	0.0030042333,	-0.8691696879
1304,	0.3333333333,	0.0124116057,	-0.8680778834
1305,	0.4166666667,	0.0163244033,	-0.8676237703
1306,	0.5000000000,	0.0174920428,	-0.8674882560
1307,	0.5833333333,	0.0163244033,	-0.8676237703
1308,	0.6666666667,	0.0124116057,	-0.8680778834
1309,	0.7500000000,	0.0030042333,	-0.8691696879
1310,	0.2500000000,	-0.0073412698,	-0.8703703704
1311,	0.3333333333,	-0.0073412698,	-0.8703703704
1312,	0.4166666667,	-0.0073412698,	-0.8703703704
1313,	0.5000000000,	-0.0073412698,	-0.8703703704
1314,	0.5833333333,	-0.0073412698,	-0.8703703704
1315,	0.6666666667,	-0.0073412698,	-0.8703703704
1316,	0.7500000000,	-0.0073412698,	-0.8703703704
1317,	0.2500000000,	-0.0176867730,	-0.8715710529
1318,	0.3333333333,	-0.0270941454,	-0.8726628574
1319,	0.4166666667,	-0.0310069430,	-0.8731169704
1320,	0.5000000000,	-0.0321745825,	-0.8732524848
1321,	0.5833333333,	-0.0310069430,	-0.8731169704
1322,	0.6666666667,	-0.0270941454,	-0.8726628574
1323,	0.7500000000,	-0.0176867730,	-0.8715710529
1324,	0.2500000000,	-0.0069360104,	-0.7694398322
1325,	0.3333333333,	0.0025069893,	-0.7687184104
1326,	0.4166666667,	0.0064346053,	-0.7684183503
1327,	0.5000000000,	0.0076066669,	-0.7683288077
1328,	0.5833333333,	0.0064346053,	-0.7684183503
1329,	0.6666666667,	0.0025069893,	-0.7687184104
1330,	0.7500000000,	-0.0069360104,	-0.7694398322
1331,	0.2500000000,	-0.0173206937,	-0.7702331962
1332,	0.3333333333,	-0.0173206937,	-0.7702331962
1333,	0.4166666667,	-0.0173206937,	-0.7702331962
1334,	0.5000000000,	-0.0173206937,	-0.7702331962
1335,	0.5833333333,	-0.0173206937,	-0.7702331962
1336,	0.6666666667,	-0.0173206937,	-0.7702331962
1337,	0.7500000000,	-0.0173206937,	-0.7702331962
1338,	0.2500000000,	-0.0277053770,	-0.7710265602
1339,	0.3333333333,	-0.0371483767,	-0.7717479819
1340,	0.4166666667,	-0.0410759927,	-0.7720480420
1341,	0.5000000000,	-0.0422480543,	-0.7721375846
1342,	0.5833333333,	-0.0410759927,	-0.7720480420
1343,	0.6666666667,	-0.0371483767,	-0.7717479819
1344,	0.7500000000,	-0.0277053770,	-0.7710265602
1345,	0.2500000000,	-0.0138051356,	-0.6491553264
1346,	0.3333333333,	-0.0043404224,	-0.6488238212
1347,	0.4166666667,	-0.0004037751,	-0.6486859387
1348,	0.5000000000,	0.0007709816,	-0.6486447924
1349,	0.5833333333,	-0.0004037751,	-0.6486859387
1350,	0.6666666667,	-0.0043404224,	-0.6488238212
1351,	0.7500000000,	-0.0138051356,	-0.6491553264
1352,	0.2500000000,	-0.0242136978,	-0.6495198903
1353,	0.3333333333,	-0.0242136978,	-0.6495198903
1354,	0.4166666667,	-0.0242136978,	-0.6495198903
1355,	0.5000000000,	-0.0242136978,	-0.6495198903
1356,	0.5833333333,	-0.0242136978,	-0.6495198903
1357,	0.6666666667,	-0.0242136978,	-0.6495198903
1358,	0.7500000000,	-0.0242136978,	-0.6495198903
1359,	0.2500000000,	-0.0346222600,	-0.6498844541
1360,	0.3333333333,	-0.0440869733,	-0.6502159593
1361,	0.4166666667,	-0.0480236206,	-0.6503538419
1362,	0.5000000000,	-0.0491983772,	-0.6503949882
1363,	0.5833333333,	-0.0480236206,	-0.6503538419
1364,	0.6666666667,	-0.0440869733,	-0.6502159593
1365,	0.7500000000,	-0.0346222600,	-0.6498844541
1366,	0.2500000000,	-0.0163712766,	-0.4998972259
1367,	0.3333333333,	-0.0069012208,	-0.4998037714
1368,	0.4166666667,	-0.0029623513,	-0.4997649010
1369,	0.5000000000,	-0.0017869315,	-0.4997533015
1370,	0.5833333333,	-0.0029623513,	-0.4997649010
1371,	0.6666666667,	-0.0069012208,	-0.4998037714
1372,	0.7500000000,	-0.0163712766,	-0.4998972259
1373,	0.2500000000,	-0.0267857143,	-0.5000000000
1374,	0.3333333333,	-0.0267857143,	-0.5000000000
1375,	0.4166666667,	-0.0267857143,	-0.5000000000
1376,	0.5000000000,	-0.0267857143,	-0.5000000000
1377,	0.5833333333,	-0.0267857143,	-0.5000000000
1378,	0.6666666667,	-0.0267857143,	-0.5000000000
1379,	0.7500000000,	-0.0267857143,	-0.5000000000
1380,	0.2500000000,	-0.0372001520,	-0.5001027741
1381,	0.3333333333,	-0.0466702078,	-0.5001962286
1382,	0.4166666667,	-0.0506090773,	-0.5002350990
1383,	0.5000000000,	-0.0517844971,	-0.5002466985
1384,	0.5833333333,	-0.0506090773,	-0.5002350990
1385,	0.6666666667,	-0.0466702078,	-0.5001962286
1386,	0.7500000000,	-0.0372001520,	-0.5001027741
1387,	0.2500000000,	-0.0163707695,	-0.3888888889
1388,	0.3333333333,	-0.0069002525,	-0.3888888889
1389,	0.4166666667,	-0.0029611913,	-0.3888888889
1390,	0.5000000000,	-0.0017857143,	-0.3888888889
1391,	0.5833333333,	-0.0029611913,	-0.3888888889
1392,	0.6666666667,	-0.0069002525,	-0.3888888889
1393,	0.7500000000,	-0.0163707695,	-0.3888888889
1394,	0.2500000000,	-0.0267857143,	-0.3888888889
1395,	0.3333333333,	-0.0267857143,	-0.3888888889
1396,	0.4166666667,	-0.0267857143,	-0.3888888889
1397,	0.5000000000,	-0.0267857143,	-0.3888888889
1398,	0.5833333333,	-0.0267857143,	-0.3888888889
1399,	0.6666666667,	-0.0267857143,	-0.3888888889
1400,	0.7500000000,	-0.0267857143,	-0.3888888889
1401,	0.2500000000,	-0.0372006590,	-0.3888888889
1402,	0.3333333333,	-0.0466711760,	-0.3888888889
1403,	0.4166666667,	-0.0506102373,	-0.3888888889
1404,	0.5000000000,	-0.0517857143,	-0.3888888889
1405,	0.5833333333,	-0.0506102373,	-0.3888888889
1406,	0.6666666667,	-0.0466711760,	-0.3888888889
1407,	0.7500000000,	-0.0372006590,	-0.3888888889
1408,	0.2500000000,	-0.0163707695,	-0.2777777778
1409,	0.3333333333,	-0.0069002525,	-0.2777777778
1410,	0.4166666667,	-0.0029611913,	-0.2777777778
1411,	0.5000000000,	-0.0017857143,	-0.2777777778
1412,	0.5833333333,	-0.0029611913,	-0.2777777778
1413,	0.6666666667,	-0.0069002525,	-0.2777777778
1414,	0.7500000000,	-0.0163707695,	-0.2777777778
1415,	0.2500000000,	-0.0267857143,	-0.2777777778
1416,	0.3333333333,	-0.0267857143,	-0.2777777778
1417,	0.4166666667,	-0.0267857143,	-0.2777777778
1418,	0.5000000000,	-0.0267857143,	-0.2777777778
1419,	0.5833333333,	-0.0267857143,	-0.2777777778
1420,	0.6666666667,	-0.0267857143,	-0.2777777778
1421,	0.7500000000,	-0.0267857143,	-0.2777777778
1422,	0.2500000000,	-0.0372006590,	-0.2777777778
1423,	0.3333333333,	-0.0466711760,	-0.2777777778
1424,	0.4166666667,	-0.0506102373,	-0.2777777778
1425,	0.5000000000,	-0.0517857143,	-0.2777777778
1426,	0.5833333333,	-0.0506102373,	-0.2777777778
1427,	0.6666666667,	-0.0466711760,	-0.2777777778
1428,	0.7500000000,	-0.0372006590,	-0.2777777778
1429,	0.2500000000,	-0.0163707695,	-0.1666666667
1430,	0.3333333333,	-0.0069002525,	-0.1666666667
1431,	0.4166666667,	-0.0029611913,	-0.1666666667
1432,	0.5000000000,	-0.0017857143,	-0.1666666667
1433,	0.5833333333,	-0.0029611913,	-0.1666666667
1434,	0.6666666667,	-0.0069002525,	-0.1666666667
1435,	0.7500000000,	-0.0163707695,	-0.1666666667
1436,	0.2500000000,	-0.0267857143,	-0.1666666667
1437,	0.3333333333,	-0.0267857143,	-0.1666666667
1438,	0.4166666667,	-0.0267857143,	-0.1666666667
1439,	0.5000000000,	-0.0267857143,	-0.1666666667
1440,	0.5833333333,	-0.0267857143,	-0.1666666667
1441,	0.6666666667,	-0.0267857143,	-0.1666666667
1442,	0.7500000000,	-0.0267857143,	-0.1666666667
1443,	0.2500000000,	-0.0372006590,	-0.1666666667
1444,	0.3333333333,	-0.0466711760,	-0.1666666667
1445,	0.4166666667,	-0.0506102373,	-0.1666666667
1446,	0.5000000000,	-0.0517857143,	-0.1666666667
1447,	0.5833333333,	-0.0506102373,	-0.1666666667
1448,	0.6666666667,	-0.0466711760,	-0.1666666667
1449,	0.7500000000,	-0.0372006590,	-0.1666666667
1450,	0.2500000000,	-0.0163707695,	-0.0555555556
1451,	0.3333333333,	-0.0069002525,	-0.0555555556
1452,	0.4166666667,	-0.0029611913,	-0.0555555556
1453,	0.5000000000,	-0.0017857143,	-0.0555555556
1454,	0.5833333333,	-0.0029611913,	-0.0555555556
1455,	0.6666666667,	-0.0069002525,	-0.0555555556
1456,	0.7500000000,	-0.0163707695,	-0.0555555556
1457,	0.2500000000,	-0.0267857143,	-0.0555555556
1458,	0.3333333333,	-0.0267857143,	-0.0555555556
1459,	0.4166666667,	-0.0267857143,	-0.0555555556
1460,	0.5000000000,	-0.0267857143,	-0.0555555556
1461,	0.5833333333,	-0.0267857143,	-0.0555555556
1462,	0.6666666667,	-0.0267857143,	-0.0555555556
1463,	0.7500000000,	-0.0267857143,	-0.0555555556
1464,	0.2500000000,	-0.0372006590,	-0.0555555556
1465,	0.3333333333,	-0.0466711760,	-0.0555555556
1466,	0.4166666667,	-0.0506102373,	-0.0555555556
1467,	0.5000000000,	-0.0517857143,	-0.0555555556
1468,	0.5833333333,	-0.0506102373,	-0.0555555556
1469,	0.6666666667,	-0.0466711760,	-0.0555555556
1470,	0.7500000000,	-0.0372006590,	-0.0555555556
1471,	0.2500000000,	-0.0163707695,	0.0555555556
1472,	0.3333333333,	-0.0069002525,	0.0555555556
1473,	0.4166666667,	-0.0029611913,	0.0555555556
1474,	0.5000000000,	-0.0017857143,	0.0555555556
1475,	0.5833333333,	-0.0029611913,	0.0555555556
1476,	0.6666666667,	-0.0069002525,	0.0555555556
1477,	0.7500000000,	-0.0163707695,	0.0555555556
1478,	0.2500000000,	-0.0267857143,	0.0555555556
1479,	0.3333333333,	-0.0267857143,	0.0555555556
1480,	0.4166666667,	-0.0267857143,	0.0555555556
1481,	0.5000000000,	-0.0267857143,	0.0555555556
1482,	0.5833333333,	-0.0267857143,	0.0555555556
1483,	0.6666666667,	-0.0267857143,	0.0555555556
1484,	0.7500000000,	-0.0267857143,	0.0555555556
1485,	0.2500000000,	-0.0372006590,	0.0555555556
1486,	0.3333333333,	-0.0466711760,	0.0555555556
1487,	0.4166666667,	-0.0506102373,	0.0555555556
1488,	0.5000000000,	-0.0517857143,	0.0555555556
1489,	0.5833333333,	-0.0506102373,	0.0555555556
1490,	0.6666666667,	-0.0466711760,	0.0555555556
1491,	0.7500000000,	-0.0372006590,	0.0555555556
1492,	0.2500000000,	-0.0163707695,	0.1666666667
1493,	0.3333333333,	-0.0069002525,	0.1666666667
1494,	0.4166666667,	-0.0029611913,	0.1666666667
1495,	0.5000000000,	-0.0017857143,	0.1666666667
1496,	0.5833333333,	-0.0029611913,	0.1666666667
1497,	0.6666666667,	-0.0069002525,	0.1666666667
1498,	0.7500000000,	-0.0163707695,	0.1666666667
1499,	0.2500000000,	-0.0267857143,	0.1666666667
1500,	0.3333333333,	-0.0267857143,	0.1666666667
1501,	0.4166666667,	-0.0267857143,	0.1666666667
1502,	0.5000000000,	-0.0267857143,	0.1666666667
1503,	0.5833333333,	-0.0267857143,	0.1666666667
1504,	0.6666666667,	-0.0267857143,	0.1666666667
1505,	0.7500000000,	-0.0267857143,	0.1666666667
1506,	0.2500000000,	-0.0372006590,	0.1666666667
1507,	0.3333333333,	-0.0466711760,	0.1666666667
1508,	0.4166666667,	-0.0506102373,	0.1666666667
1509,	0.5000000000,	-0.0517857143,	0.1666666667
1510,	0.5833333333,	-0.0506102373,	0.1666666667
1511,	0.6666666667,	-0.0466711760,	0.1666666667
1512,	0.7500000000,	-0.0372006590,	0.1666666667
1513,	0.2500000000,	-0.0163707695,	0.2777777778
1514,	0.3333333333,	-0.0069002525,	0.2777777778
1515,	0.4166666667,	-0.0029611913,	0.2777777778
1516,	0.5000000000,	-0.0017857143,	0.2777777778
1517,	0.5833333333,	-0.0029611913,	0.2777777778
1518,	0.6666666667,	-0.0069002525,	0.2777777778
1519,	0.7500000000,	-0.0163707695,	0.2777777778
1520,	0.2500000000,	-0.0267857143,	0.2777777778
1521,	0.3333333333,	-0.0267857143,	0.2777777778
1522,	0.4166666667,	-0.0267857143,	0.2777777778
1523,	0.5000000000,	-0.0267857143,	0.2777777778
1524,	0.5833333333,	-0.0267857143,	0.2777777778
1525,	0.6666666667,	-0.0267857143,	0.2777777778
1526,	0.7500000000,	-0.0267857143,	0.2777777778
1527,	0.2500000000,	-0.0372006590,	0.2777777778
1528,	0.3333333333,	-0.0466711760,	0.2777777778
1529,	0.4166666667,	-0.0506102373,	0.2777777778
1530,	0.5000000000,	-0.0517857143,	0.2777777778
1531,	0.5833333333,	-0.0506102373,	0.2777777778
1532,	0.6666666667,	-0.0466711760,	0.2777777778
1533,	0.7500000000,	-0.0372006590,	0.2777777778
1534,	0.2500000000,	-0.0163707695,	0.3888888889
1535,	0.3333333333,	-0.0069002525,	0.3888888889
1536,	0.4166666667,	-0.0029611913,	0.3888888889
1537,	0.5000000000,	-0.0017857143,	0.3888888889
1538,	0.5833333333,	-0.0029611913,	0.3888888889
1539,	0.6666666667,	-0.0069002525,	0.3888888889
1540,	0.7500000000,	-0.0163707695,	0.3888888889
1541,	0.2500000000,	-0.0267857143,	0.3888888889
1542,	0.3333333333,	-0.0267857143,	0.3888888889
1543,	0.4166666667,	-0.0267857143,	0.3888888889
1544,	0.5000000000,	-0.0267857143,	0.3888888889
1545,	0.5833333333,	-0.0267857143,	0.3888888889
1546,	0.6666666667,	-0.0267857143,	0.3888888889
1547,	0.7500000000,	-0.0267857143,	0.3888888889
1548,	0.2500000000,	-0.0372006590,	0.3888888889
1549,	0.3333333333,	-0.0466711760,	0.3888888889
1550,	0.4166666667,	-0.0506102373,	0.3888888889
1551,	0.5000000000,	-0.0517857143,	0.3888888889
1552,	0.5833333333,	-0.0506102373,	0.3888888889
1553,	0.6666666667,	-0.0466711760,	0.3888888889
1554,	0.7500000000,	-0.0372006590,	0.3888888889
1555,	0.2500000000,	-0.0163712766,	0.4998972259
1556,	0.3333333333,	-0.0069012208,	0.4998037714
1557,	0.4166666667,	-0.0029623513,	0.4997649010
1558,	0.5000000000,	-0.0017869315,	0.4997533015
1559,	0.5833333333,	-0.0029623513,	0.4997649010
1560,	0.6666666667,	-0.0069012208,	0.4998037714
1561,	0.7500000000,	-0.0163712766,	0.4998972259
1562,	0.2500000000,	-0.0267857143,	0.5000000000
1563,	0.3333333333,	-0.0267857143,	0.5000000000
1564,	0.4166666667,	-0.0267857143,	0.5000000000
1565,	0.5000000000,	-0.0267857143,	0.5000000000
1566,	0.5833333333,	-0.0267857143,	0.5000000000
1567,	0.6666666667,	-0.0267857143,	0.5000000000
1568,	0.7500000000,	-0.0267857143,	0.5000000000
1569,	0.2500000000,	-0.0372001520,	0.5001027741
1570,	0.3333333333,	-0.0466702078,	0.5001962286
1571,	0.4166666667,	-0.0506090773,	0.5002350990
1572,	0.5000000000,	-0.0517844971,	0.5002466985
1573,	0.5833333333,	-0.0506090773,	0.5002350990
1574,	0.6666666667,	-0.0466702078,	0.5001962286
1575,	0.7500000000,	-0.0372001520,	0.5001027741
1576,	0.2500000000,	-0.0138051356,	0.6491553264
1577,	0.3333333333,	-0.0043404224,	0.6488238212
1578,	0.4166666667,	-0.0004037751,	0.6486859387
1579,	0.5000000000,	0.0007709816,	0.6486447924
1580,	0.5833333333,	-0.0004037751,	0.6486859387
1581,	0.6666666667,	-0.0043404224,	0.6488238212
1582,	0.7500000000,	-0.0138051356,	0.6491553264
1583,	0.2500000000,	-0.0242136978,	0.6495198903
1584,	0.3333333333,	-0.0242136978,	0.6495198903
1585,	0.4166666667,	-0.0242136978,	0.6495198903
1586,	0.5000000000,	-0.0242136978,	0.6495198903
1587,	0.5833333333,	-0.0242136978,	0.6495198903
1588,	0.6666666667,	-0.0242136978,	0.6495198903
1589,	0.7500000000,	-0.0242136978,	0.6495198903
1590,	0.2500000000,	-0.0346222600,	0.6498844541
1591,	0.3333333333,	-0.0440869733,	0.6502159593
1592,	0.4166666667,	-0.0480236206,	0.6503538419
1593,	0.5000000000,	-0.0491983772,	0.6503949882
1594,	0.5833333333,	-0.0480236206,	0.6503538419
1595,	0.6666666667,	-0.0440869733,	0.6502159593
1596,	0.7500000000,	-0.0346222600,	0.6498844541
1597,	0.2500000000,	-0.0069360104,	0.7694398322
1598,	0.3333333333,	0.0025069893,	0.7687184104
1599,	0.4166666667,	0.0064346053,	0.7684183503
1600,	0.5000000000,	0.0076066669,	0.7683288077
1601,	0.5833333333,	0.0064346053,	0.7684183503
1602,	0.6666666667,	0.0025069893,	0.7687184104
1603,	0.7500000000,	-0.0069360104,	0.7694398322
1604,	0.2500000000,	-0.0173206937,	0.7702331962
1605,	0.3333333333,	-0.0173206937,	0.7702331962
1606,	0.4166666667,	-0.0173206937,	0.7702331962
1607,	0.5000000000,	-0.0173206937,	0.7702331962
1608,	0.5833333333,	-0.0173206937,	0.7702331962
1609,	0.6666666667,	-0.0173206937,	0.7702331962
1610,	0.7500000000,	-0.0173206937,	0.7702331962
1611,	0.2500000000,	-0.0277053770,	0.7710265602
1612,	0.3333333333,	-0.0371483767,	0.7717479819
1613,	0.4166666667,	-0.0410759927,	0.7720480420
1614,	0.5000000000,	-0.0422480543,	0.7721375846
1615,	0.5833333333,	-0.0410759927,	0.7720480420
1616,	0.6666666667,	-0.0371483767,	0.7717479819
1617,	0.7500000000,	-0.0277053770,	0.7710265602
1618,	0.2500000000,	0.0030042333,	0.8691696879
1619,	0.3333333333,	0.0124116057,	0.8680778834
1620,	0.4166666667,	0.0163244033,	0.8676237703
1621,	0.5000000000,	0.0174920428,	0.8674882560
1622,	0.5833333333,	0.0163244033,	0.8676237703
1623,	0.6666666667,	0.0124116057,	0.8680778834
1624,	0.7500000000,	0.0030042333,	0.8691696879
1625,	0.2500000000,	-0.0073412698,	0.8703703704
1626,	0.3333333333,	-0.0073412698,	0.8703703704
1627,	0.4166666667,	-0.0073412698,	0.8703703704
1628,	0.5000000000,	-0.0073412698,	0.8703703704
1629,	0.5833333333,	-0.0073412698,	0.8703703704
1630,	0.6666666667,	-0.0073412698,	0.8703703704
1631,	0.7500000000,	-0.0073412698,	0.8703703704
1632,	0.2500000000,	-0.0176867730,	0.8715710529
1633,	0.3333333333,	-0.0270941454,	0.8726628574
1634,	0.4166666667,	-0.0310069430,	0.8731169704
1635,	0.5000000000,	-0.0321745825,	0.8732524848
1636,	0.5833333333,	-0.0310069430,	0.8731169704
1637,	0.6666666667,	-0.0270941454,	0.8726628574
1638,	0.7500000000,	-0.0176867730,	0.8715710529
1639,	0.2500000000,	0.0148020823,	0.9567016756
1640,	0.3333333333,	0.0241790590,	0.9553738956
1641,	0.4166666667,	0.0280792142,	0.9548216337
1642,	0.5000000000,	0.0292430810,	0.9546568301
1643,	0.5833333333,	0.0280792142,	0.9548216337
1644,	0.6666666667,	0.0241790590,	0.9553738956
1645,	0.7500000000,	0.0148020823,	0.9567016756
1646,	0.2500000000,	0.0044900059,	0.9581618656
1647,	0.3333333333,	0.0044900059,	0.9581618656
1648,	0.4166666667,	0.0044900059,	0.9581618656
1649,	0.5000000000,	0.0044900059,	0.9581618656
1650,	0.5833333333,	0.0044900059,	0.9581618656
1651,	0.6666666667,	0.0044900059,	0.9581618656
1652,	0.7500000000,	0.0044900059,	0.9581618656
1653,	0.2500000000,	-0.0058220705,	0.9596220556
1654,	0.3333333333,	-0.0151990472,	0.9609498355
1655,	0.4166666667,	-0.0190992024,	0.9615020975
1656,	0.5000000000,	-0.0202630692,	0.9616669010
1657,	0.5833333333,	-0.0190992024,	0.9615020975
1658,	0.6666666667,	-0.0151990472,	0.9609498355
1659,	0.7500000000,	-0.0058220705,	0.9596220556
1660,	0.2500000000,	0.0272506419,	1.0403779444
1661,	0.3333333333,	0.0366276187,	1.0390501645
1662,	0.4166666667,	0.0405277738,	1.0384979025
1663,	0.5000000000,	0.0416916406,	1.0383330990
1664,	0.5833333333,	0.0405277738,	1.0384979025
1665,	0.6666666667,	0.0366276187,	1.0390501645
1666,	0.7500000000,	0.0272506419,	1.0403779444
1667,	0.2500000000,	0.0169385655,	1.0418381344
1668,	0.3333333333,	0.0169385655,	1.0418381344
1669,	0.4166666667,	0.0169385655,	1.0418381344
1670,	0.5000000000,	0.0169385655,	1.0418381344
1671,	0.5833333333,	0.0169385655,	1.0418381344
1672,	0.6666666667,	0.0169385655,	1.0418381344
1673,	0.7500000000,	0.0169385655,	1.0418381344
1674,	0.2500000000,	0.0066264892,	1.0432983244
1675,	0.3333333333,	-0.0027504876,	1.0446261044
1676,	0.4166666667,	-0.0066506427,	1.0451783663
1677,	0.5000000000,	-0.0078145095,	1.0453431699
1678,	0.5833333333,	-0.0066506427,	1.0451783663
1679,	0.6666666667,	-0.0027504876,	1.0446261044
1680,	0.7500000000,	0.0066264892,	1.0432983244
1681,	0.2500000000,	0.0391153444,	1.1284289471
1682,	0.3333333333,	0.0485227168,	1.1273371426
1683,	0.4166666667,	0.0524355144,	1.1268830296
1684,	0.5000000000,	0.0536031539,	1.1267475152
1685,	0.5833333333,	0.0524355144,	1.1268830296
1686,	0.6666666667,	0.0485227168,	1.1273371426
1687,	0.7500000000,	0.0391153444,	1.1284289471
1688,	0.2500000000,	0.0287698413,	1.1296296296
1689,	0.3333333333,	0.0287698413,	1.1296296296
1690,	0.4166666667,	0.0287698413,	1.1296296296
1691,	0.5000000000,	0.0287698413,	1.1296296296
1692,	0.5833333333,	0.0287698413,	1.1296296296
1693,	0.6666666667,	0.0287698413,	1.1296296296
1694,	0.7500000000,	0.0287698413,	1.1296296296
1695,	0.2500000000,	0.0184243381,	1.1308303121
1696,	0.3333333333,	0.0090169657,	1.1319221166
1697,	0.4166666667,	0.0051041681,	1.1323762297
1698,	0.5000000000,	0.0039365286,	1.1325117440
1699,	0.5833333333,	0.0051041681,	1.1323762297
1700,	0.6666666667,	0.0090169657,	1.1319221166
1701,	0.7500000000,	0.0184243381,	1.1308303121
1702,	0.2500000000,	0.0491339485,	1.2289734398
1703,	0.3333333333,	0.0585769481,	1.2282520181
1704,	0.4166666667,	0.0625045642,	1.2279519580
1705,	0.5000000000,	0.0636766257,	1.2278624154
1706,	0.5833333333,	0.0625045642,	1.2279519580
1707,	0.6666666667,	0.0585769481,	1.2282520181
1708,	0.7500000000,	0.0491339485,	1.2289734398
1709,	0.2500000000,	0.0387492651,	1.2297668038
1710,	0.3333333333,	0.0387492651,	1.2297668038
1711,	0.4166666667,	0.0387492651,	1.2297668038
1712,	0.5000000000,	0.0387492651,	1.2297668038
1713,	0.5833333333,	0.0387492651,	1.2297668038
1714,	0.6666666667,	0.0387492651,	1.2297668038
1715,	0.7500000000,	0.0387492651,	1.2297668038
1716,	0.2500000000,	0.0283645818,	1.2305601678
1717,	0.3333333333,	0.0189215821,	1.2312815896
1718,	0.4166666667,	0.0149939661,	1.2315816497
1719,	0.5000000000,	0.0138219046,	1.2316711923
1720,	0.5833333333,	0.0149939661,	1.2315816497
1721,	0.6666666667,	0.0189215821,	1.2312815896
1722,	0.7500000000,	0.0283645818,	1.2305601678
1723,	0.2500000000,	0.0560508315,	1.3501155459
1724,	0.3333333333,	0.0655155447,	1.3497840407
1725,	0.4166666667,	0.0694521920,	1.3496461581
1726,	0.5000000000,	0.0706269486,	1.3496050118
1727,	0.5833333333,	0.0694521920,	1.3496461581
1728,	0.6666666667,	0.0655155447,	1.3497840407
1729,	0.7500000000,	0.0560508315,	1.3501155459
1730,	0.2500000000,	0.0456422693,	1.3504801097
1731,	0.3333333333,	0.0456422693,	1.3504801097
1732,	0.4166666667,	0.0456422693,	1.3504801097
1733,	0.5000000000,	0.0456422693,	1.3504801097
1734,	0.5833333333,	0.0456422693,	1.3504801097
1735,	0.6666666667,	0.0456422693,	1.3504801097
1736,	0.7500000000,	0.0456422693,	1.3504801097
1737,	0.2500000000,	0.0352337070,	1.3508446736
1738,	0.3333333333,	0.0257689938,	1.3511761788
1739,	0.4166666667,	0.0218323465,	1.3513140613
1740,	0.5000000000,	0.0206575899,	1.3513552076
1741,	0.5833333333,	0.0218323465,	1.3513140613
1742,	0.6666666667,	0.0257689938,	1.3511761788
1743,	0.7500000000,	0.0352337070,	1.3508446736
1744,	0.2500000000,	0.0586292305,	1.5000000000
1745,	0.3333333333,	0.0680997475,	1.5000000000
1746,	0.4166666667,	0.0720388087,	1.5000000000
1747,	0.5000000000,	0.0732142857,	1.5000000000
1748,	0.5833333333,	0.0720388087,	1.5000000000
1749,	0.6666666667,	0.0680997475,	1.5000000000
1750,	0.7500000000,	0.0586292305,	1.5000000000
1751,	0.2500000000,	0.0482142857,	1.5000000000
1752,	0.3333333333,	0.0482142857,	1.5000000000
1753,	0.4166666667,	0.0482142857,	1.5000000000
1754,	0.5000000000,	0.0482142857,	1.5000000000
1755,	0.5833333333,	0.0482142857,	1.5000000000
1756,	0.6666666667,	0.0482142857,	1.5000000000
1757,	0.7500000000,	0.0482142857,	1.5000000000
1758,	0.2500000000,	0.0377993410,	1.5000000000
1759,	0.3333333333,	0.0283288240,	1.5000000000
1760,	0.4166666667,	0.0243897627,	1.5000000000
1761,	0.5000000000,	0.0232142857,	1.5000000000
1762,	0.5833333333,	0.0243897627,	1.5000000000
1763,	0.6666666667,	0.0283288240,	1.5000000000
1764,	0.7500000000,	0.0377993410,	1.5000000000
1765,	1.2500000000,	0.0479149448,	-1.5000000000
1766,	1.3333333333,	0.0573854617,	-1.5000000000
1767,	1.4166666667,	0.0613245230,	-1.5000000000
1768,	1.5000000000,	0.0625000000,	-1.5000000000
1769,	1.5833333333,	0.0613245230,	-1.5000000000
1770,	1.6666666667,	0.0573854617,	-1.5000000000
1771,	1.7500000000,	0.0479149448,	-1.5000000000
1772,	1.2500000000,	0.0375000000,	-1.5000000000
1773,	1.3333333333,	0.0375000000,	-1.5000000000
1774,	1.4166666667,	0.0375000000,	-1.5000000000
1775,	1.5000000000,	0.0375000000,	-1.5000000000
1776,	1.5833333333,	0.0375000000,	-1.5000000000
1777,	1.6666666667,	0.0375000000,	-1.5000000000
1778,	1.7500000000,	0.0375000000,	-1.5000000000
1779,	1.2500000000,	0.0270850552,	-1.5000000000
1780,	1.3333333333,	0.0176145383,	-1.5000000000
1781,	1.4166666667,	0.0136754770,	-1.5000000000
1782,	1.5000000000,	0.0125000000,	-1.5000000000
1783,	1.5833333333,	0.0136754770,	-1.5000000000
1784,	1.6666666667,	0.0176145383,	-1.5000000000
1785,	1.7500000000,	0.0270850552,	-1.5000000000
1786,	1.2500000000,	0.0479149448,	-1.3888888889
1787,	1.3333333333,	0.0573854617,	-1.3888888889
1788,	1.4166666667,	0.0613245230,	-1.3888888889
1789,	1.5000000000,	0.0625000000,	-1.3888888889
1790,	1.5833333333,	0.0613245230,	-1.3888888889
1791,	1.6666666667,	0.0573854617,	-1.3888888889
1792,	1.7500000000,	0.0479149448,	-1.3888888889
1793,	1.2500000000,	0.0375000000,	-1.3888888889
1794,	1.3333333333,	0.0375000000,	-1.3888888889
1795,	1.4166666667,	0.0375000000,	-1.3888888889
1796,	1.5000000000,	0.0375000000,	-1.3888888889
1797,	1.5833333333,	0.0375000000,	-1.3888888889
1798,	1.6666666667,	0.0375000000,	-1.3888888889
1799,	1.7500000000,	0.0375000000,	-1.3888888889
1800,	1.2500000000,	0.0270850552,	-1.3888888889
1801,	1.3333333333,	0.0176145383,	-1.3888888889
1802,	1.4166666667,	0.0136754770,	-1.3888888889
1803,	1.5000000000,	0.0125000000,	-1.3888888889
1804,	1.5833333333,	0.0136754770,	-1.3888888889
1805,	1.6666666667,	0.0176145383,	-1.3888888889
1806,	1.7500000000,	0.0270850552,	-1.3888888889
1807,	1.2500000000,	0.0479149448,	-1.2777777778
1808,	1.3333333333,	0.0573854617,	-1.2777777778
1809,	1.4166666667,	0.0613245230,	-1.2777777778
1810,	1.5000000000,	0.0625000000,	-1.2777777778
1811,	1.5833333333,	0.0613245230,	-1.2777777778
1812,	1.6666666667,	0.0573854617,	-1.2777777778
1813,	1.7500000000,	0.0479149448,	-1.2777777778
1814,	1.2500000000,	0.0375000000,	-1.2777777778
1815,	1.3333333333,	0.0375000000,	-1.2777777778
1816,	1.4166666667,	0.0375000000,	-1.2777777778
1817,	1.5000000000,	0.0375000000,	-1.2777777778
1818,	1.5833333333,	0.0375000000,	-1.2777777778
1819,	1.6666666667,	0.0375000000,	-1.2777777778
1820,	1.7500000000,	0.0375000000,	-1.2777777778
1821,	1.2500000000,	0.0270850552,	-1.2777777778
1822,	1.3333333333,	0.0176145383,	-1.2777777778
1823,	1.4166666667,	0.0136754770,	-1.2777777778
1824,	1.5000000000,	0.0125000000,	-1.2777777778
1825,	1.5833333333,	0.0136754770,	-1.2777777778
1826,	1.6666666667,	0.0176145383,	-1.2777777778
1827,	1.7500000000,	0.0270850552,	-1.2777777778
1828,	1.2500000000,	0.0479149448,	-1.1666666667
1829,	1.3333333333,	0.0573854617,	-1.1666666667
1830,	1.4166666667,	0.0613245230,	-1.1666666667
1831,	1.5000000000,	0.0625000000,	-1.1666666667
1832,	1.5833333333,	0.0613245230,	-1.1666666667
1833,	1.6666666667,	0.0573854617,	-1.1666666667
1834,	1.7500000000,	0.0479149448,	-1.1666666667
1835,	1.2500000000,	0.0375000000,	-1.1666666667
1836,	1.3333333333,	0.0375000000,	-1.1666666667
1837,	1.4166666667,	0.0375000000,	-1.1666666667
1838,	1.5000000000,	0.0375000000,	-1.1666666667
1839,	1.5833333333,	0.0375000000,	-1.1666666667
1840,	1.6666666667,	0.0375000000,	-1.1666666667
1841,	1.7500000000,	0.0375000000,	-1.1666666667
1842,	1.2500000000,	0.0270850552,	-1.1666666667
1843,	1.3333333333,	0.0176145383,	-1.1666666667
1844,	1.4166666667,	0.0136754770,	-1.1666666667
1845,	1.5000000000,	0.0125000000,	-1.1666666667
1846,	1.5833333333,	0.0136754770,	-1.1666666667
1847,	1.6666666667,	0.0176145383,	-1.1666666667
1848,	1.7500000000,	0.0270850552,	-1.1666666667
1849,	1.2500000000,	0.0479149448,	-1.0555555556
1850,	1.3333333333,	0.0573854617,	-1.0555555556
1851,	1.4166666667,	0.0613245230,	-1.0555555556
1852,	1.5000000000,	0.0625000000,	-1.0555555556
1853,	1.5833333333,	0.0613245230,	-1.0555555556
1854,	1.6666666667,	0.0573854617,	-1.0555555556
1855,	1.7500000000,	0.0479149448,	-1.0555555556
1856,	1.2500000000,	0.0375000000,	-1.0555555556
1857,	1.3333333333,	0.0375000000,	-1.0555555556
1858,	1.4166666667,	0.0375000000,	-1.0555555556
1859,	1.5000000000,	0.0375000000,	-1.0555555556
1860,	1.5833333333,	0.0375000000,	-1.0555555556
1861,	1.6666666667,	0.0375000000,	-1.0555555556
1862,	1.7500000000,	0.0375000000,	-1.0555555556
1863,	1.2500000000,	0.0270850552,	-1.0555555556
1864,	1.3333333333,	0.0176145383,	-1.0555555556
1865,	1.4166666667,	0.0136754770,	-1.0555555556
1866,	1.5000000000,	0.0125000000,	-1.0555555556
1867,	1.5833333333,	0.0136754770,	-1.0555555556
1868,	1.6666666667,	0.0176145383,	-1.0555555556
1869,	1.7500000000,	0.0270850552,	-1.0555555556
1870,	1.2500000000,	0.0479149448,	-0.9444444444
1871,	1.3333333333,	0.0573854617,	-0.9444444444
1872,	1.4166666667,	0.0613245230,	-0.9444444444
1873,	1.5000000000,	0.0625000000,	-0.9444444444
1874,	1.5833333333,	0.0613245230,	-0.9444444444
1875,	1.6666666667,	0.0573854617,	-0.9444444444
1876,	1.7500000000,	0.0479149448,	-0.9444444444
1877,	1.2500000000,	0.0375000000,	-0.9444444444
1878,	1.3333333333,	0.0375000000,	-0.9444444444
1879,	1.4166666667,	0.0375000000,	-0.9444444444
1880,	1.5000000000,	0.0375000000,	-0.9444444444
1881,	1.5833333333,	0.0375000000,	-0.9444444444
1882,	1.6666666667,	0.0375000000,	-0.9444444444
1883,	1.7500000000,	0.0375000000,	-0.9444444444
1884,	1.2500000000,	0.0270850552,	-0.9444444444
1885,	1.3333333333,	0.0176145383,	-0.9444444444
1886,	1.4166666667,	0.0136754770,	-0.9444444444
1887,	1.5000000000,	0.0125000000,	-0.9444444444
1888,	1.5833333333,	0.0136754770,	-0.9444444444
1889,	1.6666666667,	0.0176145383,	-0.9444444444
1890,	1.7500000000,	0.0270850552,	-0.9444444444
1891,	1.2500000000,	0.0479149448,	-0.8333333333
1892,	1.3333333333,	0.0573854617,	-0.8333333333
1893,	1.4166666667,	0.0613245230,	-0.8333333333
1894,	1.5000000000,	0.0625000000,	-0.8333333333
1895,	1.5833333333,	0.0613245230,	-0.8333333333
1896,	1.6666666667,	0.0573854617,	-0.8333333333
1897,	1.7500000000,	0.0479149448,	-0.8333333333
1898,	1.2500000000,	0.0375000000,	-0.8333333333
1899,	1.3333333333,	0.0375000000,	-0.8333333333
1900,	1.4166666667,	0.0375000000,	-0.8333333333
1901,	1.5000000000,	0.0375000000,	-0.8333333333
1902,	1.5833333333,	0.0375000000,	-0.8333333333
1903,	1.6666666667,	0.0375000000,	-0.8333333333
1904,	1.7500000000,	0.0375000000,	-0.8333333333
1905,	1.2500000000,	0.0270850552,	-0.8333333333
1906,	1.3333333333,	0.0176145383,	-0.8333333333
1907,	1.4166666667,	0.0136754770,	-0.8333333333
1908,	1.5000000000,	0.0125000000,	-0.8333333333
1909,	1.5833333333,	0.0136754770,	-0.8333333333
1910,	1.6666666667,	0.0176145383,	-0.8333333333
1911,	1.7500000000,	0.0270850552,	-0.8333333333
1912,	1.2500000000,	0.0479149448,	-0.7222222222
1913,	1.3333333333,	0.0573854617,	-0.7222222222
1914,	1.4166666667,	0.0613245230,	-0.7222222222
1915,	1.5000000000,	0.0625000000,	-0.7222222222
1916,	1.5833333333,	0.0613245230,	-0.7222222222
1917,	1.6666666667,	0.0573854617,	-0.7222222222
1918,	1.7500000000,	0.0479149448,	-0.7222222222
1919,	1.2500000000,	0.0375000000,	-0.7222222222
1920,	1.3333333333,	0.0375000000,	-0.7222222222
1921,	1.4166666667,	0.0375000000,	-0.7222222222
1922,	1.5000000000,	0.0375000000,	-0.7222222222
1923,	1.5833333333,	0.0375000000,	-0.7222222222
1924,	1.6666666667,	0.0375000000,	-0.7222222222
1925,	1.7500000000,	0.0375000000,	-0.7222222222
1926,	1.2500000000,	0.0270850552,	-0.7222222222
1927,	1.3333333333,	0.0176145383,	-0.7222222222
1928,	1.4166666667,	0.0136754770,	-0.7222222222
1929,	1.5000000000,	0.0125000000,	-0.7222222222
1930,	1.5833333333,	0.0136754770,	-0.7222222222
1931,	1.6666666667,	0.0176145383,	-0.7222222222
1932,	1.7500000000,	0.0270850552,	-0.7222222222
1933,	1.2500000000,	0.0479149448,	-0.6111111111
1934,	1.3333333333,	0.0573854617,	-0.6111111111
1935,	1.4166666667,	0.0613245230,	-0.6111111111
1936,	1.5000000000,	0.0625000000,	-0.6111111111
1937,	1.5833333333,	0.0613245230,	-0.6111111111
1938,	1.6666666667,	0.0573854617,	-0.6111111111
1939,	1.7500000000,	0.0479149448,	-0.6111111111
1940,	1.2500000000,	0.0375000000,	-0.6111111111
1941,	1.3333333333,	0.0375000000,	-0.6111111111
1942,	1.4166666667,	0.0375000000,	-0.6111111111
1943,	1.5000000000,	0.0375000000,	-0.6111111111
1944,	1.5833333333,	0.0375000000,	-0.6111111111
1945,	1.6666666667,	0.0375000000,	-0.6111111111
1946,	1.7500000000,	0.0375000000,	-0.6111111111
1947,	1.2500000000,	0.0270850552,	-0.6111111111
1948,	1.3333333333,	0.0176145383,	-0.6111111111
1949,	1.4166666667,	0.0136754770,	-0.6111111111
1950,	1.5000000000,	0.0125000000,	-0.6111111111
1951,	1.5833333333,	0.0136754770,	-0.6111111111
1952,	1.6666666667,	0.0176145383,	-0.6111111111
1953,	1.7500000000,	0.0270850552,	-0.6111111111
1954,	1.2500000000,	0.0479144377,	-0.4998972259
1955,	1.3333333333,	0.0573844935,	-0.4998037714
1956,	1.4166666667,	0.0613233630,	-0.4997649010
1957,	1.5000000000,	0.0624987828,	-0.4997533015
1958,	1.5833333333,	0.0613233630,	-0.4997649010
1959,	1.6666666667,	0.0573844935,	-0.4998037714
1960,	1.7500000000,	0.0479144377,	-0.4998972259
1961,	1.2500000000,	0.0375000000,	-0.5000000000
1962,	1.3333333333,	0.0375000000,	-0.5000000000
1963,	1.4166666667,	0.0375000000,	-0.5000000000
1964,	1.5000000000,	0.0375000000,	-0.5000000000
1965,	1.5833333333,	0.0375000000,	-0.5000000000
1966,	1.6666666667,	0.0375000000,	-0.5000000000
1967,	1.7500000000,	0.0375000000,	-0.5000000000
1968,	1.2500000000,	0.0270855623,	-0.5001027741
1969,	1.3333333333,	0.0176155065,	-0.5001962286
1970,	1.4166666667,	0.0136766370,	-0.5002350990
1971,	1.5000000000,	0.0125012172,	-0.5002466985
1972,	1.5833333333,	0.0136766370,	-0.5002350990
1973,	1.6666666667,	0.0176155065,	-0.5001962286
1974,	1.7500000000,	0.0270855623,	-0.5001027741
1975,	1.2500000000,	0.0453365458,	-0.3501155459
1976,	1.3333333333,	0.0548012590,	-0.3497840407
1977,	1.4166666667,	0.0587379063,	-0.3496461581
1978,	1.5000000000,	0.0599126629,	-0.3496050118
1979,	1.5833333333,	0.0587379063,	-0.3496461581
1980,	1.6666666667,	0.0548012590,	-0.3497840407
1981,	1.7500000000,	0.0453365458,	-0.3501155459
1982,	1.2500000000,	0.0349279835,	-0.3504801097
1983,	1.3333333333,	0.0349279835,	-0.3504801097
1984,	1.4166666667,	0.0349279835,	-0.3504801097
1985,	1.5000000000,	0.0349279835,	-0.3504801097
1986,	1.5833333333,	0.0349279835,	-0.3504801097
1987,	1.6666666667,	0.0349279835,	-0.3504801097
1988,	1.7500000000,	0.0349279835,	-0.3504801097
1989,	1.2500000000,	0.0245194213,	-0.3508446736
1990,	1.3333333333,	0.0150547081,	-0.3511761788
1991,	1.4166666667,	0.0111180608,	-0.3513140613
1992,	1.5000000000,	0.0099433042,	-0.3513552076
1993,	1.5833333333,	0.0111180608,	-0.3513140613
1994,	1.6666666667,	0.0150547081,	-0.3511761788
1995,	1.7500000000,	0.0245194213,	-0.3508446736
1996,	1.2500000000,	0.0384196628,	-0.2289734398
1997,	1.3333333333,	0.0478626624,	-0.2282520181
1998,	1.4166666667,	0.0517902784,	-0.2279519580
1999,	1.5000000000,	0.0529623400,	-0.2278624154
2000,	1.5833333333,	0.0517902784,	-0.2279519580
2001,	1.6666666667,	0.0478626624,	-0.2282520181
2002,	1.7500000000,	0.0384196628,	-0.2289734398
2003,	1.2500000000,	0.0280349794,	-0.2297668038
2004,	1.3333333333,	0.0280349794,	-0.2297668038
2005,	1.4166666667,	0.0280349794,	-0.2297668038
2006,	1.5000000000,	0.0280349794,	-0.2297668038
2007,	1.5833333333,	0.0280349794,	-0.2297668038
2008,	1.6666666667,	0.0280349794,	-0.2297668038
2009,	1.7500000000,	0.0280349794,	-0.2297668038
2010,	1.2500000000,	0.0176502961,	-0.2305601678
2011,	1.3333333333,	0.0082072964,	-0.2312815896
2012,	1.4166666667,	0.0042796804,	-0.2315816497
2013,	1.5000000000,	0.0031076189,	-0.2316711923
2014,	1.5833333333,	0.0042796804,	-0.2315816497
2015,	1.6666666667,	0.0082072964,	-0.2312815896
2016,	1.7500000000,	0.0176502961,	-0.2305601678
2017,	1.2500000000,	0.0284010587,	-0.1284289471
2018,	1.3333333333,	0.0378084311,	-0.1273371426
2019,	1.4166666667,	0.0417212287,	-0.1268830296
2020,	1.5000000000,	0.0428888682,	-0.1267475152
2021,	1.5833333333,	0.0417212287,	-0.1268830296
2022,	1.6666666667,	0.0378084311,	-0.1273371426
2023,	1.7500000000,	0.0284010587,	-0.1284289471
2024,	1.2500000000,	0.0180555556,	-0.1296296296
2025,	1.3333333333,	0.0180555556,	-0.1296296296
2026,	1.4166666667,	0.0180555556,	-0.1296296296
2027,	1.5000000000,	0.0180555556,	-0.1296296296
2028,	1.5833333333,	0.0180555556,	-0.1296296296
2029,	1.6666666667,	0.0180555556,	-0.1296296296
2030,	1.7500000000,	0.0180555556,	-0.1296296296
2031,	1.2500000000,	0.0077100524,	-0.1308303121
2032,	1.3333333333,	-0.0016973200,	-0.1319221166
2033,	1.4166666667,	-0.0056101176,	-0.1323762297
2034,	1.5000000000,	-0.0067777571,	-0.1325117440
2035,	1.5833333333,	-0.0056101176,	-0.1323762297
2036,	1.6666666667,	-0.0016973200,	-0.1319221166
2037,	1.7500000000,	0.0077100524,	-0.1308303121
2038,	1.2500000000,	0.0165363562,	-0.0403779444
2039,	1.3333333333,	0.0259133329,	-0.0390501645
2040,	1.4166666667,	0.0298134881,	-0.0384979025
2041,	1.5000000000,	0.0309773549,	-0.0383330990
2042,	1.5833333333,	0.0298134881,	-0.0384979025
2043,	1.6666666667,	0.0259133329,	-0.0390501645
2044,	1.7500000000,	0.0165363562,	-0.0403779444
2045,	1.2500000000,	0.0062242798,	-0.0418381344
2046,	1.3333333333,	0.0062242798,	-0.0418381344
2047,	1.4166666667,	0.0062242798,	-0.0418381344
2048,	1.5000000000,	0.0062242798,	-0.0418381344
2049,	1.5833333333,	0.0062242798,	-0.0418381344
2050,	1.6666666667,	0.0062242798,	-0.0418381344
2051,	1.7500000000,	0.0062242798,	-0.0418381344
2052,	1.2500000000,	-0.0040877966,	-0.0432983244
2053,	1.3333333333,	-0.0134647733,	-0.0446261044
2054,	1.4166666667,	-0.0173649285,	-0.0451783663
2055,	1.5000000000,	-0.0185287953,	-0.0453431699
2056,	1.5833333333,	-0.0173649285,	-0.0451783663
2057,	1.6666666667,	-0.0134647733,	-0.0446261044
2058,	1.7500000000,	-0.0040877966,	-0.0432983244
2059,	1.2500000000,	0.0040877966,	0.0432983244
2060,	1.3333333333,	0.0134647733,	0.0446261044
2061,	1.4166666667,	0.0173649285,	0.0451783663
2062,	1.5000000000,	0.0185287953,	0.0453431699
2063,	1.5833333333,	0.0173649285,	0.0451783663
2064,	1.6666666667,	0.0134647733,	0.0446261044
2065,	1.7500000000,	0.0040877966,	0.0432983244
2066,	1.2500000000,	-0.0062242798,	0.0418381344
2067,	1.3333333333,	-0.0062242798,	0.0418381344
2068,	1.4166666667,	-0.0062242798,	0.0418381344
2069,	1.5000000000,	-0.0062242798,	0.0418381344
2070,	1.5833333333,	-0.0062242798,	0.0418381344
2071,	1.6666666667,	-0.0062242798,	0.0418381344
2072,	1.7500000000,	-0.0062242798,	0.0418381344
2073,	1.2500000000,	-0.0165363562,	0.0403779444
2074,	1.3333333333,	-0.0259133329,	0.0390501645
2075,	1.4166666667,	-0.0298134881,	0.0384979025
2076,	1.5000000000,	-0.0309773549,	0.0383330990
2077,	1.5833333333,	-0.0298134881,	0.0384979025
2078,	1.6666666667,	-0.0259133329,	0.0390501645
2079,	1.7500000000,	-0.0165363562,	0.0403779444
2080,	1.2500000000,	-0.0077100524,	0.1308303121
2081,	1.3333333333,	0.0016973200,	0.1319221166
2082,	1.4166666667,	0.0056101176,	0.1323762297
2083,	1.5000000000,	0.0067777571,	0.1325117440
2084,	1.5833333333,	0.0056101176,	0.1323762297
2085,	1.6666666667,	0.0016973200,	0.1319221166
2086,	1.7500000000,	-0.0077100524,	0.1308303121
2087,	1.2500000000,	-0.0180555556,	0.1296296296
2088,	1.3333333333,	-0.0180555556,	0.1296296296
2089,	1.4166666667,	-0.0180555556,	0.1296296296
2090,	1.5000000000,	-0.0180555556,	0.1296296296
2091,	1.5833333333,	-0.0180555556,	0.1296296296
2092,	1.6666666667,	-0.0180555556,	0.1296296296
2093,	1.7500000000,	-0.0180555556,	0.1296296296
2094,	1.2500000000,	-0.0284010587,	0.1284289471
2095,	1.3333333333,	-0.0378084311,	0.1273371426
2096,	1.4166666667,	-0.0417212287,	0.1268830296
2097,	1.5000000000,	-0.0428888682,	0.1267475152
2098,	1.5833333333,	-0.0417212287,	0.1268830296
2099,	1.6666666667,	-0.0378084311,	0.1273371426
2100,	1.7500000000,	-0.0284010587,	0.1284289471
2101,	1.2500000000,	-0.0176502961,	0.2305601678
2102,	1.3333333333,	-0.0082072964,	0.2312815896
2103,	1.4166666667,	-0.0042796804,	0.2315816497
2104,	1.5000000000,	-0.0031076189,	0.2316711923
2105,	1.5833333333,	-0.0042796804,	0.2315816497
2106,	1.6666666667,	-0.0082072964,	0.2312815896
2107,	1.7500000000,	-0.0176502961,	0.2305601678
2108,	1.2500000000,	-0.0280349794,	0.2297668038
2109,	1.3333333333,	-0.0280349794,	0.2297668038
2110,	1.4166666667,	-0.0280349794,	0.2297668038
2111,	1.5000000000,	-0.0280349794,	0.2297668038
2112,	1.5833333333,	-0.0280349794,	0.2297668038
2113,	1.6666666667,	-0.0280349794,	0.2297668038
2114,	1.7500000000,	-0.0280349794,	0.2297668038
2115,	1.2500000000,	-0.0384196628,	0.2289734398
2116,	1.3333333333,	-0.0478626624,	0.2282520181
2117,	1.4166666667,	-0.0517902784,	0.2279519580
2118,	1.5000000000,	-0.0529623400,	0.2278624154
2119,	1.5833333333,	-0.0517902784,	0.2279519580
2120,	1.6666666667,	-0.0478626624,	0.2282520181
2121,	1.7500000000,	-0.0384196628,	0.2289734398
2122,	1.2500000000,	-0.0245194213,	0.3508446736
2123,	1.3333333333,	-0.0150547081,	0.3511761788
2124,	1.4166666667,	-0.0111180608,	0.3513140613
2125,	1.5000000000,	-0.0099433042,	0.3513552076
2126,	1.5833333333,	-0.0111180608,	0.3513140613
2127,	1.6666666667,	-0.0150547081,	0.3511761788
2128,	1.7500000000,	-0.0245194213,	0.3508446736
2129,	1.2500000000,	-0.0349279835,	0.3504801097
2130,	1.3333333333,	-0.0349279835,	0.3504801097
2131,	1.4166666667,	-0.0349279835,	0.3504801097
2132,	1.5000000000,	-0.0349279835,	0.3504801097
2133,	1.5833333333,	-0.0349279835,	0.3504801097
2134,	1.6666666667,	-0.0349279835,	0.3504801097
2135,	1.7500000000,	-0.0349279835,	0.3504801097
2136,	1.2500000000,	-0.0453365458,	0.3501155459
2137,	1.3333333333,	-0.0548012590,	0.3497840407
2138,	1.4166666667,	-0.0587379063,	0.3496461581
2139,	1.5000000000,	-0.0599126629,	0.3496050118
2140,	1.5833333333,	-0.0587379063,	0.3496461581
2141,	1.6666666667,	-0.0548012590,	0.3497840407
2142,	1.7500000000,	-0.0453365458,	0.3501155459
2143,	1.2500000000,	-0.0270855623,	0.5001027741
2144,	1.3333333333,	-0.0176155065,	0.5001962286
2145,	1.4166666667,	-0.0136766370,	0.5002350990
2146,	1.5000000000,	-0.0125012172,	0.5002466985
2147,	1.5833333333,	-0.0136766370,	0.5002350990
2148,	1.6666666667,	-0.0176155065,	0.5001962286
2149,	1.7500000000,	-0.0270855623,	0.5001027741
2150,	1.2500000000,	-0.0375000000,	0.5000000000
2151,	1.3333333333,	-0.0375000000,	0.5000000000
2152,	1.4166666667,	-0.0375000000,	0.5000000000
2153,	1.5000000000,	-0.0375000000,	0.5000000000
2154,	1.5833333333,	-0.0375000000,	0.5000000000
2155,	1.6666666667,	-0.0375000000,	0.5000000000
2156,	1.7500000000,	-0.0375000000,	0.5000000000
2157,	1.2500000000,	-0.0479144377,	0.4998972259
2158,	1.3333333333,	-0.0573844935,	0.4998037714
2159,	1.4166666667,	-0.0613233630,	0.4997649010
2160,	1.5000000000,	-0.0624987828,	0.4997533015
2161,	1.5833333333,	-0.0613233630,	0.4997649010
2162,	1.6666666667,	-0.0573844935,	0.4998037714
2163,	1.7500000000,	-0.0479144377,	0.4998972259
2164,	1.2500000000,	-0.0270850552,	0.6111111111
2165,	1.3333333333,	-0.0176145383,	0.6111111111
2166,	1.4166666667,	-0.0136754770,	0.6111111111
2167,	1.5000000000,	-0.0125000000,	0.6111111111
2168,	1.5833333333,	-0.0136754770,	0.6111111111
2169,	1.6666666667,	-0.0176145383,	0.6111111111
2170,	1.7500000000,	-0.0270850552,	0.6111111111
2171,	1.2500000000,	-0.0375000000,	0.6111111111
2172,	1.3333333333,	-0.0375000000,	0.6111111111
2173,	1.4166666667,	-0.0375000000,	0.6111111111
2174,	1.5000000000,	-0.0375000000,	0.6111111111
2175,	1.5833333333,	-0.0375000000,	0.6111111111
2176,	1.6666666667,	-0.0375000000,	0.6111111111
2177,	1.7500000000,	-0.0375000000,	0.6111111111
2178,	1.2500000000,	-0.0479149448,	0.6111111111
2179,	1.3333333333,	-0.0573854617,	0.6111111111
2180,	1.4166666667,	-0.0613245230,	0.6111111111
2181,	1.5000000000,	-0.0625000000,	0.6111111111
2182,	1.5833333333,	-0.0613245230,	0.6111111111
2183,	1.6666666667,	-0.0573854617,	0.6111111111
2184,	1.7500000000,	-0.0479149448,	0.6111111111
2185,	1.2500000000,	-0.0270850552,	0.7222222222
2186,	1.3333333333,	-0.0176145383,	0.7222222222
2187,	1.4166666667,	-0.0136754770,	0.7222222222
2188,	1.5000000000,	-0.0125000000,	0.7222222222
2189,	1.5833333333,	-0.0136754770,	0.7222222222
2190,	1.6666666667,	-0.0176145383,	0.7222222222
2191,	1.7500000000,	-0.0270850552,	0.7222222222
2192,	1.2500000000,	-0.0375000000,	0.7222222222
2193,	1.3333333333,	-0.0375000000,	0.7222222222
2194,	1.4166666667,	-0.0375000000,	0.7222222222
2195,	1.5000000000,	-0.0375000000,	0.7222222222
2196,	1.5833333333,	-0.0375000000,	0.7222222222
2197,	1.6666666667,	-0.0375000000,	0.7222222222
2198,	1.7500000000,	-0.0375000000,	0.7222222222
2199,	1.2500000000,	-0.0479149448,	0.7222222222
2200,	1.3333333333,	-0.0573854617,	0.7222222222
2201,	1.4166666667,	-0.0613245230,	0.7222222222
2202,	1.5000000000,	-0.0625000000,	0.7222222222
2203,	1.5833333333,	-0.0613245230,	0.7222222222
2204,	1.6666666667,	-0.0573854617,	0.7222222222
2205,	1.7500000000,	-0.0479149448,	0.7222222222
2206,	1.2500000000,	-0.0270850552,	0.8333333333
2207,	1.3333333333,	-0.0176145383,	0.8333333333
2208,	1.4166666667,	-0.0136754770,	0.8333333333
2209,	1.5000000000,	-0.0125000000,	0.8333333333
2210,	1.5833333333,	-0.0136754770,	0.8333333333
2211,	1.6666666667,	-0.0176145383,	0.8333333333
2212,	1.7500000000,	-0.0270850552,	0.8333333333
2213,	1.2500000000,	-0.0375000000,	0.8333333333
2214,	1.3333333333,	-0.0375000000,	0.8333333333
2215,	1.4166666667,	-0.0375000000,	0.8333333333
2216,	1.5000000000,	-0.0375000000,	0.8333333333
2217,	1.5833333333,	-0.0375000000,	0.8333333333
2218,	1.6666666667,	-0.0375000000,	0.8333333333
2219,	1.7500000000,	-0.0375000000,	0.8333333333
2220,	1.2500000000,	-0.0479149448,	0.8333333333
2221,	1.3333333333,	-0.0573854617,	0.8333333333
2222,	1.4166666667,	-0.0613245230,	0.8333333333
2223,	1.5000000000,	-0.0625000000,	0.8333333333
2224,	1.5833333333,	-0.0613245230,	0.8333333333
2225,	1.6666666667,	-0.0573854617,	0.8333333333
2226,	1.7500000000,	-0.0479149448,	0.8333333333
2227,	1.2500000000,	-0.0270850552,	0.9444444444
2228,	1.3333333333,	-0.0176145383,	0.9444444444
2229,	1.4166666667,	-0.0136754770,	0.9444444444
2230,	1.5000000000,	-0.0125000000,	0.9444444444
2231,	1.5833333333,	-0.0136754770,	0.9444444444
2232,	1.6666666667,	-0.0176145383,	0.9444444444
2233,	1.7500000000,	-0.0270850552,	0.9444444444
2234,	1.2500000000,	-0.0375000000,	0.9444444444
2235,	1.3333333333,	-0.0375000000,	0.9444444444
2236,	1.4166666667,	-0.0375000000,	0.9444444444
2237,	1.5000000000,	-0.0375000000,	0.9444444444
2238,	1.5833333333,	-0.0375000000,	0.9444444444
2239,	1.6666666667,	-0.0375000000,	0.9444444444
2240,	1.7500000000,	-0.0375000000,	0.9444444444
2241,	1.2500000000,	-0.0479149448,	0.9444444444
2242,	1.3333333333,	-0.0573854617,	0.9444444444
2243,	1.4166666667,	-0.0613245230,	0.9444444444
2244,	1.5000000000,	-0.0625000000,	0.9444444444
2245,	1.5833333333,	-0.0613245230,	0.9444444444
2246,	1.6666666667,	-0.0573854617,	0.9444444444
2247,	1.7500000000,	-0.0479149448,	0.9444444444
2248,	1.2500000000,	-0.0270850552,	1.0555555556
2249,	1.3333333333,	-0.0176145383,	1.0555555556
2250,	1.4166666667,	-0.0136754770,	1.0555555556
2251,	1.5000000000,	-0.0125000000,	1.0555555556
2252,	1.5833333333,	-0.0136754770,	1.0555555556
2253,	1.6666666667,	-0.0176145383,	1.0555555556
2254,	1.7500000000,	-0.0270850552,	1.0555555556
2255,	1.2500000000,	-0.0375000000,	1.0555555556
2256,	1.3333333333,	-0.0375000000,	1.0555555556
2257,	1.4166666667,	-0.0375000000,	1.0555555556
2258,	1.5000000000,	-0.0375000000,	1.0555555556
2259,	1.5833333333,	-0.0375000000,	1.0555555556
2260,	1.6666666667,	-0.0375000000,	1.0555555556
2261,	1.7500000000,	-0.0375000000,	1.0555555556
2262,	1.2500000000,	-0.0479149448,	1.0555555556
2263,	1.3333333333,	-0.0573854617,	1.0555555556
2264,	1.4166666667,	-0.0613245230,	1.0555555556
2265,	1.5000000000,	-0.0625000000,	1.0555555556
2266,	1.5833333333,	-0.0613245230,	1.0555555556
2267,	1.6666666667,	-0.0573854617,	1.0555555556
2268,	1.7500000000,	-0.0479149448,	1.0555555556
2269,	1.2500000000,	-0.0270850552,	1.1666666667
2270,	1.3333333333,	-0.0176145383,	1.1666666667
2271,	1.4166666667,	-0.0136754770,	1.1666666667
2272,	1.5000000000,	-0.0125000000,	1.1666666667
2273,	1.5833333333,	-0.0136754770,	1.1666666667
2274,	1.6666666667,	-0.0176145383,	1.1666666667
2275,	1.7500000000,	-0.0270850552,	1.1666666667
2276,	1.2500000000,	-0.0375000000,	1.1666666667
2277,	1.3333333333,	-0.0375000000,	1.1666666667
2278,	1.4166666667,	-0.0375000000,	1.1666666667
2279,	1.5000000000,	-0.0375000000,	1.1666666667
2280,	1.5833333333,	-0.0375000000,	1.1666666667
2281,	1.6666666667,	-0.0375000000,	1.1666666667
2282,	1.7500000000,	-0.0375000000,	1.1666666667
2283,	1.2500000000,	-0.0479149448,	1.1666666667
2284,	1.3333333333,	-0.0573854617,	1.1666666667
2285,	1.4166666667,	-0.0613245230,	1.1666666667
2286,	1.5000000000,	-0.0625000000,	1.1666666667
2287,	1.5833333333,	-0.0613245230,	1.1666666667
2288,	1.6666666667,	-0.0573854617,	1.1666666667
2289,	1.7500000000,	-0.0479149448,	1.1666666667
2290,	1.2500000000,	-0.0270850552,	1.2777777778
2291,	1.3333333333,	-0.0176145383,	1.2777777778
2292,	1.4166666667,	-0.0136754770,	1.2777777778
2293,	1.5000000000,	-0.0125000000,	1.2777777778
2294,	1.5833333333,	-0.0136754770,	1.2777777778
2295,	1.6666666667,	-0.0176145383,	1.2777777778
2296,	1.7500000000,	-0.0270850552,	1.2777777778
2297,	1.2500000000,	-0.0375000000,	1.2777777778
2298,	1.3333333333,	-0.0375000000,	1.2777777778
2299,	1.4166666667,	-0.0375000000,	1.2777777778
2300,	1.5000000000,	-0.0375000000,	1.2777777778
2301,	1.5833333333,	-0.0375000000,	1.2777777778
2302,	1.6666666667,	-0.0375000000,	1.2777777778
2303,	1.7500000000,	-0.0375000000,	1.2777777778
2304,	1.2500000000,	-0.0479149448,	1.2777777778
2305,	1.3333333333,	-0.0573854617,	1.2777777778
2306,	1.4166666667,	-0.0613245230,	1.2777777778
2307,	1.5000000000,	-0.0625000000,	1.2777777778
2308,	1.5833333333,	-0.0613245230,	1.2777777778
2309,	1.6666666667,	-0.0573854617,	1.2777777778
2310,	1.7500000000,	-0.0479149448,	1.2777777778
2311,	1.2500000000,	-0.0270850552,	1.3888888889
2312,	1.3333333333,	-0.0176145383,	1.3888888889
2313,	1.4166666667,	-0.0136754770,	1.3888888889
2314,	1.5000000000,	-0.0125000000,	1.3888888889
2315,	1.5833333333,	-0.0136754770,	1.3888888889
2316,	1.6666666667,	-0.0176145383,	1.3888888889
2317,	1.7500000000,	-0.0270850552,	1.3888888889
2318,	1.2500000000,	-0.0375000000,	1.3888888889
2319,	1.3333333333,	-0.0375000000,	1.3888888889
2320,	1.4166666667,	-0.0375000000,	1.3888888889
2321,	1.5000000000,	-0.0375000000,	1.3888888889
2322,	1.5833333333,	-0.0375000000,	1.3888888889
2323,	1.6666666667,	-0.0375000000,	1.3888888889
2324,	1.7500000000,	-0.0375000000,	1.3888888889
2325,	1.2500000000,	-0.0479149448,	1.3888888889
2326,	1.3333333333,	-0.0573854617,	1.3888888889
2327,	1.4166666667,	-0.0613245230,	1.3888888889
2328,	1.5000000000,	-0.0625000000,	1.3888888889
2329,	1.5833333333,	-0.0613245230,	1.3888888889
2330,	1.6666666667,	-0.0573854617,	1.3888888889
2331,	1.7500000000,	-0.0479149448,	1.3888888889
2332,	1.2500000000,	-0.0270850552,	1.5000000000
2333,	1.3333333333,	-0.0176145383,	1.5000000000
2334,	1.4166666667,	-0.0136754770,	1.5000000000
2335,	1.5000000000,	-0.0125000000,	1.5000000000
2336,	1.5833333333,	-0.0136754770,	1.5000000000
2337,	1.6666666667,	-0.0176145383,	1.5000000000
2338,	1.7500000000,	-0.0270850552,	1.5000000000
2339,	1.2500000000,	-0.0375000000,	1.5000000000
2340,	1.3333333333,	-0.0375000000,	1.5000000000
2341,	1.4166666667,	-0.0375000000,	1.5000000000
2342,	1.5000000000,	-0.0375000000,	1.5000000000
2343,	1.5833333333,	-0.0375000000,	1.5000000000
2344,	1.6666666667,	-0.0375000000,	1.5000000000
2345,	1.7500000000,	-0.0375000000,	1.5000000000
2346,	1.2500000000,	-0.0479149448,	1.5000000000
2347,	1.3333333333,	-0.0573854617,	1.5000000000
2348,	1.4166666667,	-0.0613245230,	1.5000000000
2349,	1.5000000000,	-0.0625000000,	1.5000000000
2350,	1.5833333333,	-0.0613245230,	1.5000000000
2351,	1.6666666667,	-0.0573854617,	1.5000000000
2352,	1.7500000000,	-0.0479149448,	1.5000000000
2353,	-1.5000000000,	0.0479149448,	-1.2500000000
2354,	-1.5000000000,	0.0573854617,	-1.3333333333
2355,	-1.5000000000,	0.0613245230,	-1.4166666667
2356,	-1.5000000000,	0.0625000000,	-1.5000000000
2357,	-1.5000000000,	0.0613245230,	-1.5833333333
2358,	-1.5000000000,	0.0573854617,	-1.6666666667
2359,	-1.5000000000,	0.0479149448,	-1.7500000000
2360,	-1.5000000000,	0.0375000000,	-1.2500000000
2361,	-1.5000000000,	0.0375000000,	-1.3333333333
2362,	-1.5000000000,	0.0375000000,	-1.4166666667
2363,	-1.5000000000,	0.0375000000,	-1.5000000000
2364,	-1.5000000000,	0.0375000000,	-1.5833333333
2365,	-1.5000000000,	0.0375000000,	-1.6666666667
2366,	-1.5000000000,	0.0375000000,	-1.7500000000
2367,	-1.5000000000,	0.0270850552,	-1.2500000000
2368,	-1.5000000000,	0.0176145383,	-1.3333333333
2369,	-1.5000000000,	0.0136754770,	-1.4166666667
2370,	-1.5000000000,	0.0125000000,	-1.5000000000
2371,	-1.5000000000,	0.0136754770,	-1.5833333333
2372,	-1.5000000000,	0.0176145383,	-1.6666666667
2373,	-1.5000000000,	0.0270850552,	-1.7500000000
2374,	-1.3888888889,	0.0479149448,	-1.2500000000
2375,	-1.3888888889,	0.0573854617,	-1.3333333333
2376,	-1.3888888889,	0.0613245230,	-1.4166666667
2377,	-1.3888888889,	0.0625000000,	-1.5000000000
2378,	-1.3888888889,	0.0613245230,	-1.5833333333
2379,	-1.3888888889,	0.0573854617,	-1.6666666667
2380,	-1.3888888889,	0.0479149448,	-1.7500000000
2381,	-1.3888888889,	0.0375000000,	-1.2500000000
2382,	-1.3888888889,	0.0375000000,	-1.3333333333
2383,	-1.3888888889,	0.0375000000,	-1.4166666667
2384,	-1.3888888889,	0.0375000000,	-1.5000000000
2385,	-1.3888888889,	0.0375000000,	-1.5833333333
2386,	-1.3888888889,	0.0375000000,	-1.6666666667
2387,	-1.3888888889,	0.0375000000,	-1.7500000000
2388,	-1.3888888889,	0.0270850552,	-1.2500000000
2389,	-1.3888888889,	0.0176145383,	-1.3333333333
2390,	-1.3888888889,	0.0136754770,	-1.4166666667
2391,	-1.3888888889,	0.0125000000,	-1.5000000000
2392,	-1.3888888889,	0.0136754770,	-1.5833333333
2393,	-1.3888888889,	0.0176145383,	-1.6666666667
2394,	-1.3888888889,	0.0270850552,	-1.7500000000
2395,	-1.2777777778,	0.0479149448,	-1.2500000000
2396,	-1.2777777778,	0.0573854617,	-1.3333333333
2397,	-1.2777777778,	0.0613245230,	-1.4166666667
2398,	-1.2777777778,	0.0625000000,	-1.5000000000
2399,	-1.2777777778,	0.0613245230,	-1.5833333333
2400,	-1.2777777778,	0.0573854617,	-1.6666666667
2401,	-1.2777777778,	0.0479149448,	-1.7500000000
2402,	-1.2777777778,	0.0375000000,	-1.2500000000
2403,	-1.2777777778,	0.0375000000,	-1.3333333333
2404,	-1.2777777778,	0.0375000000,	-1.4166666667
2405,	-1.2777777778,	0.0375000000,	-1.5000000000
2406,	-1.2777777778,	0.0375000000,	-1.5833333333
2407,	-1.2777777778,	0.0375000000,	-1.6666666667
2408,	-1.2777777778,	0.0375000000,	-1.7500000000
2409,	-1.2777777778,	0.0270850552,	-1.2500000000
2410,	-1.2777777778,	0.0176145383,	-1.3333333333
2411,	-1.2777777778,	0.0136754770,	-1.4166666667
2412,	-1.2777777778,	0.0125000000,	-1.5000000000
2413,	-1.2777777778,	0.0136754770,	-1.5833333333
2414,	-1.2777777778,	0.0176145383,	-1.6666666667
2415,	-1.2777777778,	0.0270850552,	-1.7500000000
2416,	-1.1666666667,	0.0479149448,	-1.2500000000
2417,	-1.1666666667,	0.0573854617,	-1.3333333333
2418,	-1.1666666667,	0.0613245230,	-1.4166666667
2419,	-1.1666666667,	0.0625000000,	-1.5000000000
2420,	-1.1666666667,	0.0613245230,	-1.5833333333
2421,	-1.1666666667,	0.0573854617,	-1.6666666667
2422,	-1.1666666667,	0.0479149448,	-1.7500000000
2423,	-1.1666666667,	0.0375000000,	-1.2500000000
2424,	-1.1666666667,	0.0375000000,	-1.3333333333
2425,	-1.1666666667,	0.0375000000,	-1.4166666667
2426,	-1.1666666667,	0.0375000000,	-1.5000000000
2427,	-1.1666666667,	0.0375000000,	-1.5833333333
2428,	-1.1666666667,	0.0375000000,	-1.6666666667
2429,	-1.1666666667,	0.0375000000,	-1.7500000000
2430,	-1.1666666667,	0.0270850552,	-1.2500000000
2431,	-1.1666666667,	0.0176145383,	-1.3333333333
2432,	-1.1666666667,	0.0136754770,	-1.4166666667
2433,	-1.1666666667,	0.0125000000,	-1.5000000000
2434,	-1.1666666667,	0.0136754770,	-1.5833333333
2435,	-1.1666666667,	0.0176145383,	-1.6666666667
2436,	-1.1666666667,	0.0270850552,	-1.7500000000
2437,	-1.0555555556,	0.0479149448,	-1.2500000000
2438,	-1.0555555556,	0.0573854617,	-1.3333333333
2439,	-1.0555555556,	0.0613245230,	-1.4166666667
2440,	-1.0555555556,	0.0625000000,	-1.5000000000
2441,	-1.0555555556,	0.0613245230,	-1.5833333333
2442,	-1.0555555556,	0.0573854617,	-1.6666666667
2443,	-1.0555555556,	0.0479149448,	-1.7500000000
2444,	-1.0555555556,	0.0375000000,	-1.2500000000
2445,	-1.0555555556,	0.0375000000,	-1.3333333333
2446,	-1.0555555556,	0.0375000000,	-1.4166666667
2447,	-1.0555555556,	0.0375000000,	-1.5000000000
2448,	-1.0555555556,	0.0375000000,	-1.5833333333
2449,	-1.0555555556,	0.0375000000,	-1.6666666667
2450,	-1.0555555556,	0.0375000000,	-1.7500000000
2451,	-1.0555555556,	0.0270850552,	-1.2500000000
2452,	-1.0555555556,	0.0176145383,	-1.3333333333
2453,	-1.0555555556,	0.0136754770,	-1.4166666667
2454,	-1.0555555556,	0.0125000000,	-1.5000000000
2455,	-1.0555555556,	0.0136754770,	-1.5833333333
2456,	-1.0555555556,	0.0176145383,	-1.6666666667
2457,	-1.0555555556,	0.0270850552,	-1.7500000000
2458,	-0.9444444444,	0.0479149448,	-1.2500000000
2459,	-0.9444444444,	0.0573854617,	-1.3333333333
2460,	-0.9444444444,	0.0613245230,	-1.4166666667
2461,	-0.9444444444,	0.0625000000,	-1.5000000000
2462,	-0.9444444444,	0.0613245230,	-1.5833333333
2463,	-0.9444444444,	0.0573854617,	-1.6666666667
2464,	-0.9444444444,	0.0479149448,	-1.7500000000
2465,	-0.9444444444,	0.0375000000,	-1.2500000000
2466,	-0.9444444444,	0.0375000000,	-1.3333333333
2467,	-0.9444444444,	0.0375000000,	-1.4166666667
2468,	-0.9444444444,	0.0375000000,	-1.5000000000
2469,	-0.9444444444,	0.0375000000,	-1.5833333333
2470,	-0.9444444444,	0.0375000000,	-1.6666666667
2471,	-0.9444444444,	0.0375000000,	-1.7500000000
2472,	-0.9444444444,	0.0270850552,	-1.2500000000
2473,	-0.9444444444,	0.0176145383,	-1.3333333333
2474,	-0.9444444444,	0.0136754770,	-1.4166666667
2475,	-0.9444444444,	0.0125000000,	-1.5000000000
2476,	-0.9444444444,	0.0136754770,	-1.5833333333
2477,	-0.9444444444,	0.0176145383,	-1.6666666667
2478,	-0.9444444444,	0.0270850552,	-1.7500000000
2479,	-0.8333333333,	0.0479149448,	-1.2500000000
2480,	-0.8333333333,	0.0573854617,	-1.3333333333
2481,	-0.8333333333,	0.0613245230,	-1.4166666667
2482,	-0.8333333333,	0.0625000000,	-1.5000000000
2483,	-0.8333333333,	0.0613245230,	-1.5833333333
2484,	-0.8333333333,	0.0573854617,	-1.6666666667
2485,	-0.8333333333,	0.0479149448,	-1.7500000000
2486,	-0.8333333333,	0.0375000000,	-1.2500000000
2487,	-0.8333333333,	0.0375000000,	-1.3333333333
2488,	-0.8333333333,	0.0375000000,	-1.4166666667
2489,	-0.8333333333,	0.0375000000,	-1.5000000000
2490,	-0.8333333333,	0.0375000000,	-1.5833333333
2491,	-0.8333333333,	0.0375000000,	-1.6666666667
2492,	-0.8333333333,	0.0375000000,	-1.7500000000
2493,	-0.8333333333,	0.0270850552,	-1.2500000000
2494,	-0.8333333333,	0.0176145383,	-1.3333333333
2495,	-0.8333333333,	0.0136754770,	-1.4166666667
2496,	-0.8333333333,	0.0125000000,	-1.5000000000
2497,	-0.8333333333,	0.0136754770,	-1.5833333333
2498,	-0.8333333333,	0.0176145383,	-1.6666666667
2499,	-0.8333333333,	0.0270850552,	-1.7500000000
2500,	-0.7222222222,	0.0479149448,	-1.2500000000
2501,	-0.7222222222,	0.0573854617,	-1.3333333333
2502,	-0.7222222222,	0.0613245230,	-1.4166666667
2503,	-0.7222222222,	0.0625000000,	-1.5000000000
2504,	-0.7222222222,	0.0613245230,	-1.5833333333
2505,	-0.7222222222,	0.0573854617,	-1.6666666667
2506,	-0.7222222222,	0.0479149448,	-1.7500000000
2507,	-0.7222222222,	0.0375000000,	-1.2500000000
2508,	-0.7222222222,	0.0375000000,	-1.3333333333
2509,	-0.7222222222,	0.0375000000,	-1.4166666667
2510,	-0.7222222222,	0.0375000000,	-1.5000000000
2511,	-0.7222222222,	0.0375000000,	-1.5833333333
2512,	-0.7222222222,	0.0375000000,	-1.6666666667
2513,	-0.7222222222,	0.0375000000,	-1.7500000000
2514,	-0.7222222222,	0.0270850552,	-1.2500000000
2515,	-0.7222222222,	0.0176145383,	-1.3333333333
2516,	-0.7222222222,	0.0136754770,	-1.4166666667
2517,	-0.7222222222,	0.0125000000,	-1.5000000000
2518,	-0.7222222222,	0.0136754770,	-1.5833333333
2519,	-0.7222222222,	0.0176145383,	-1.6666666667
2520,	-0.7222222222,	0.0270850552,	-1.7500000000
2521,	-0.6111111111,	0.0479149448,	-1.2500000000
2522,	-0.6111111111,	0.0573854617,	-1.3333333333
2523,	-0.6111111111,	0.0613245230,	-1.4166666667
2524,	-0.6111111111,	0.0625000000,	-1.5000000000
2525,	-0.6111111111,	0.0613245230,	-1.5833333333
2526,	-0.6111111111,	0.0573854617,	-1.6666666667
2527,	-0.6111111111,	0.0479149448,	-1.7500000000
2528,	-0.6111111111,	0.0375000000,	-1.2500000000
2529,	-0.6111111111,	0.0375000000,	-1.3333333333
2530,	-0.6111111111,	0.0375000000,	-1.4166666667
2531,	-0.6111111111,	0.0375000000,	-1.5000000000
2532,	-0.6111111111,	0.0375000000,	-1.5833333333
2533,	-0.6111111111,	0.0375000000,	-1.6666666667
2534,	-0.6111111111,	0.0375000000,	-1.7500000000
2535,	-0.6111111111,	0.0270850552,	-1.2500000000
2536,	-0.6111111111,	0.0176145383,	-1.3333333333
2537,	-0.6111111111,	0.0136754770,	-1.4166666667
2538,	-0.6111111111,	0.0125000000,	-1.5000000000
2539,	-0.6111111111,	0.0136754770,	-1.5833333333
2540,	-0.6111111111,	0.0176145383,	-1.6666666667
2541,	-0.6111111111,	0.0270850552,	-1.7500000000
2542,	-0.4998972259,	0.0479144377,	-1.2500000000
2543,	-0.4998037714,	0.0573844935,	-1.3333333333
2544,	-0.4997649010,	0.0613233630,	-1.4166666667
2545,	-0.4997533015,	0.0624987828,	-1.5000000000
2546,	-0.4997649010,	0.0613233630,	-1.5833333333
2547,	-0.4998037714,	0.0573844935,	-1.6666666667
2548,	-0.4998972259,	0.0479144377,	-1.7500000000
2549,	-0.5000000000,	0.0375000000,	-1.2500000000
2550,	-0.5000000000,	0.0375000000,	-1.3333333333
2551,	-0.5000000000,	0.0375000000,	-1.4166666667
2552,	-0.5000000000,	0.0375000000,	-1.5000000000
2553,	-0.5000000000,	0.0375000000,	-1.5833333333
2554,	-0.5000000000,	0.0375000000,	-1.6666666667
2555,	-0.5000000000,	0.0375000000,	-1.7500000000
2556,	-0.5001027741,	0.0270855623,	-1.2500000000
2557,	-0.5001962286,	0.0176155065,	-1.3333333333
2558,	-0.5002350990,	0.0136766370,	-1.4166666667
2559,	-0.5002466985,	0.0125012172,	-1.5000000000
2560,	-0.5002350990,	0.0136766370,	-1.5833333333
2561,	-0.5001962286,	0.0176155065,	-1.6666666667
2562,	-0.5001027741,	0.0270855623,	-1.7500000000
2563,	-0.3501155459,	0.0453365458,	-1.2500000000
2564,	-0.3497840407,	0.0548012590,	-1.3333333333
2565,	-0.3496461581,	0.0587379063,	-1.4166666667
2566,	-0.3496050118,	0.0599126629,	-1.5000000000
2567,	-0.3496461581,	0.0587379063,	-1.5833333333
2568,	-0.3497840407,	0.0548012590,	-1.6666666667
2569,	-0.3501155459,	0.0453365458,	-1.7500000000
2570,	-0.3504801097,	0.0349279835,	-1.2500000000
2571,	-0.3504801097,	0.0349279835,	-1.3333333333
2572,	-0.3504801097,	0.0349279835,	-1.4166666667
2573,	-0.3504801097,	0.0349279835,	-1.5000000000
2574,	-0.3504801097,	0.0349279835,	-1.5833333333
2575,	-0.3504801097,	0.0349279835,	-1.6666666667
2576,	-0.3504801097,	0.0349279835,	-1.7500000000
2577,	-0.3508446736,	0.0245194213,	-1.2500000000
2578,	-0.3511761788,	0.0150547081,	-1.3333333333
2579,	-0.3513140613,	0.0111180608,	-1.4166666667
2580,	-0.3513552076,	0.0099433042,	-1.5000000000
2581,	-0.3513140613,	0.0111180608,	-1.5833333333
2582,	-0.3511761788,	0.0150547081,	-1.6666666667
2583,	-0.3508446736,	0.0245194213,	-1.7500000000
2584,	-0.2289734398,	0.0384196628,	-1.2500000000
2585,	-0.2282520181,	0.0478626624,	-1.3333333333
2586,	-0.2279519580,	0.0517902784,	-1.4166666667
2587,	-0.2278624154,	0.0529623400,	-1.5000000000
2588,	-0.2279519580,	0.0517902784,	-1.5833333333
2589,	-0.2282520181,	0.0478626624,	-1.6666666667
2590,	-0.2289734398,	0.0384196628,	-1.7500000000
2591,	-0.2297668038,	0.0280349794,	-1.2500000000
2592,	-0.2297668038,	0.0280349794,	-1.3333333333
2593,	-0.2297668038,	0.0280349794,	-1.4166666667
2594,	-0.2297668038,	0.0280349794,	-1.5000000000
2595,	-0.2297668038,	0.0280349794,	-1.5833333333
2596,	-0.2297668038,	0.0280349794,	-1.6666666667
2597,	-0.2297668038,	0.0280349794,	-1.7500000000
2598,	-0.2305601678,	0.0176502961,	-1.2500000000
2599,	-0.2312815896,	0.0082072964,	-1.3333333333
2600,	-0.2315816497,	0.0042796804,	-1.4166666667
2601,	-0.2316711923,	0.0031076189,	-1.5000000000
2602,	-0.2315816497,	0.0042796804,	-1.5833333333
2603,	-0.2312815896,	0.0082072964,	-1.6666666667
2604,	-0.2305601678,	0.0176502961,	-1.7500000000
2605,	-0.1284289471,	0.0284010587,	-1.2500000000
2606,	-0.1273371426,	0.0378084311,	-1.3333333333
2607,	-0.1268830296,	0.0417212287,	-1.4166666667
2608,	-0.1267475152,	0.0428888682,	-1.5000000000
2609,	-0.1268830296,	0.0417212287,	-1.5833333333
2610,	-0.1273371426,	0.0378084311,	-1.6666666667
2611,	-0.1284289471,	0.0284010587,	-1.7500000000
2612,	-0.1296296296,	0.0180555556,	-1.2500000000
2613,	-0.1296296296,	0.0180555556,	-1.3333333333
2614,	-0.1296296296,	0.0180555556,	-1.4166666667
2615,	-0.1296296296,	0.0180555556,	-1.5000000000
2616,	-0.1296296296,	0.0180555556,	-1.5833333333
2617,	-0.1296296296,	0.0180555556,	-1.6666666667
2618,	-0.1296296296,	0.0180555556,	-1.7500000000
2619,	-0.1308303121,	0.0077100524,	-1.2500000000
2620,	-0.1319221166,	-0.0016973200,	-1.3333333333
2621,	-0.1323762297,	-0.0056101176,	-1.4166666667
2622,	-0.1325117440,	-0.0067777571,	-1.5000000000
2623,	-0.1323762297,	-0.0056101176,	-1.5833333333
2624,	-0.1319221166,	-0.0016973200,	-1.6666666667
2625,	-0.1308303121,	0.0077100524,	-1.7500000000
2626,	-0.0403779444,	0.0165363562,	-1.2500000000
2627,	-0.0390501645,	0.0259133329,	-1.3333333333
2628,	-0.0384979025,	0.0298134881,	-1.4166666667
2629,	-0.0383330990,	0.0309773549,	-1.5000000000
2630,	-0.0384979025,	0.0298134881,	-1.5833333333
2631,	-0.0390501645,	0.0259133329,	-1.6666666667
2632,	-0.0403779444,	0.0165363562,	-1.7500000000
2633,	-0.0418381344,	0.0062242798,	-1.2500000000
2634,	-0.0418381344,	0.0062242798,	-1.3333333333
2635,	-0.0418381344,	0.0062242798,	-1.4166666667
2636,	-0.0418381344,	0.0062242798,	-1.5000000000
2637,	-0.0418381344,	0.0062242798,	-1.5833333333
2638,	-0.0418381344,	0.0062242798,	-1.6666666667
2639,	-0.0418381344,	0.0062242798,	-1.7500000000
2640,	-0.0432983244,	-0.0040877966,	-1.2500000000
2641,	-0.0446261044,	-0.0134647733,	-1.3333333333
2642,	-0.0451783663,	-0.0173649285,	-1.4166666667
2643,	-0.0453431699,	-0.0185287953,	-1.5000000000
2644,	-0.0451783663,	-0.0173649285,	-1.5833333333
2645,	-0.0446261044,	-0.0134647733,	-1.6666666667
2646,	-0.0432983244,	-0.0040877966,	-1.7500000000
2647,	0.0432983244,	0.0040877966,	-1.2500000000
2648,	0.0446261044,	0.0134647733,	-1.3333333333
2649,	0.0451783663,	0.0173649285,	-1.4166666667
2650,	0.0453431699,	0.0185287953,	-1.5000000000
2651,	0.0451783663,	0.0173649285,	-1.5833333333
2652,	0.0446261044,	0.0134647733,	-1.6666666667
2653,	0.0432983244,	0.0040877966,	-1.7500000000
2654,	0.0418381344,	-0.0062242798,	-1.2500000000
2655,	0.0418381344,	-0.0062242798,	-1.3333333333
2656,	0.0418381344,	-0.0062242798,	-1.4166666667
2657,	0.0418381344,	-0.0062242798,	-1.5000000000
2658,	0.0418381344,	-0.0062242798,	-1.5833333333
2659,	0.0418381344,	-0.0062242798,	-1.6666666667
2660,	0.0418381344,	-0.0062242798,	-1.7500000000
2661,	0.0403779444,	-0.0165363562,	-1.2500000000
2662,	0.0390501645,	-0.0259133329,	-1.3333333333
2663,	0.0384979025,	-0.0298134881,	-1.4166666667
2664,	0.0383330990,	-0.0309773549,	-1.5000000000
2665,	0.0384979025,	-0.0298134881,	-1.5833333333
2666,	0.0390501645,	-0.0259133329,	-1.6666666667
2667,	0.0403779444,	-0.0165363562,	-1.7500000000
2668,	0.1308303121,	-0.0077100524,	-1.2500000000
2669,	0.1319221166,	0.0016973200,	-1.3333333333
2670,	0.1323762297,	0.0056101176,	-1.4166666667
2671,	0.1325117440,	0.0067777571,	-1.5000000000
2672,	0.1323762297,	0.0056101176,	-1.5833333333
2673,	0.1319221166,	0.0016973200,	-1.6666666667
2674,	0.1308303121,	-0.0077100524,	-1.7500000000
2675,	0.1296296296,	-0.0180555556,	-1.2500000000
2676,	0.1296296296,	-0.0180555556,	-1.3333333333
2677,	0.1296296296,	-0.0180555556,	-1.4166666667
2678,	0.1296296296,	-0.0180555556,	-1.5000000000
2679,	0.1296296296,	-0.0180555556,	-1.5833333333
2680,	0.1296296296,	-0.0180555556,	-1.6666666667
2681,	0.1296296296,	-0.0180555556,	-1.7500000000
2682,	0.1284289471,	-0.0284010587,	-1.2500000000
2683,	0.1273371426,	-0.0378084311,	-1.3333333333
2684,	0.1268830296,	-0.0417212287,	-1.4166666667
2685,	0.1267475152,	-0.0428888682,	-1.5000000000
2686,	0.1268830296,	-0.0417212287,	-1.5833333333
2687,	0.1273371426,	-0.0378084311,	-1.6666666667
2688,	0.1284289471,	-0.0284010587,	-1.7500000000
2689,	0.2305601678,	-0.0176502961,	-1.2500000000
2690,	0.2312815896,	-0.0082072964,	-1.3333333333
2691,	0.2315816497,	-0.0042796804,	-1.4166666667
2692,	0.2316711923,	-0.0031076189,	-1.5000000000
2693,	0.2315816497,	-0.0042796804,	-1.5833333333
2694,	0.2312815896,	-0.0082072964,	-1.6666666667
2695,	0.2305601678,	-0.0176502961,	-1.7500000000
2696,	0.2297668038,	-0.0280349794,	-1.2500000000
2697,	0.2297668038,	-0.0280349794,	-1.3333333333
2698,	0.2297668038,	-0.0280349794,	-1.4166666667
2699,	0.2297668038,	-0.0280349794,	-1.5000000000
2700,	0.2297668038,	-0.0280349794,	-1.5833333333
2701,	0.2297668038,	-0.0280349794,	-1.6666666667
2702,	0.2297668038,	-0.0280349794,	-1.7500000000
2703,	0.2289734398,	-0.0384196628,	-1.2500000000
2704,	0.2282520181,	-0.0478626624,	-1.3333333333
2705,	0.2279519580,	-0.0517902784,	-1.4166666667
2706,	0.2278624154,	-0.0529623400,	-1.5000000000
2707,	0.2279519580,	-0.0517902784,	-1.5833333333
2708,	0.2282520181,	-0.0478626624,	-1.6666666667
2709,	0.2289734398,	-0.0384196628,	-1.7500000000
2710,	0.3508446736,	-0.0245194213,	-1.2500000000
2711,	0.3511761788,	-0.0150547081,	-1.3333333333
2712,	0.3513140613,	-0.0111180608,	-1.4166666667
2713,	0.3513552076,	-0.0099433042,	-1.5000000000
2714,	0.3513140613,	-0.0111180608,	-1.5833333333
2715,	0.3511761788,	-0.0150547081,	-1.6666666667
2716,	0.3508446736,	-0.0245194213,	-1.7500000000
2717,	0.3504801097,	-0.0349279835,	-1.2500000000
2718,	0.3504801097,	-0.0349279835,	-1.3333333333
2719,	0.3504801097,	-0.0349279835,	-1.4166666667
2720,	0.3504801097,	-0.0349279835,	-1.5000000000
2721,	0.3504801097,	-0.0349279835,	-1.5833333333
2722,	0.3504801097,	-0.0349279835,	-1.6666666667
2723,	0.3504801097,	-0.0349279835,	-1.7500000000
2724,	0.3501155459,	-0.0453365458,	-1.2500000000
2725,	0.3497840407,	-0.0548012590,	-1.3333333333
2726,	0.3496461581,	-0.0587379063,	-1.4166666667
2727,	0.3496050118,	-0.0599126629,	-1.5000000000
2728,	0.3496461581,	-0.0587379063,	-1.5833333333
2729,	0.3497840407,	-0.0548012590,	-1.6666666667
2730,	0.3501155459,	-0.0453365458,	-1.7500000000
2731,	0.5001027741,	-0.0270855623,	-1.2500000000
2732,	0.5001962286,	-0.0176155065,	-1.3333333333
2733,	0.5002350990,	-0.0136766370,	-1.4166666667
2734,	0.5002466985,	-0.0125012172,	-1.5000000000
2735,	0.5002350990,	-0.0136766370,	-1.5833333333
2736,	0.5001962286,	-0.0176155065,	-1.6666666667
2737,	0.5001027741,	-0.0270855623,	-1.7500000000
2738,	0.5000000000,	-0.0375000000,	-1.2500000000
2739,	0.5000000000,	-0.0375000000,	-1.3333333333
2740,	0.5000000000,	-0.0375000000,	-1.4166666667
2741,	0.5000000000,	-0.0375000000,	-1.5000000000
2742,	0.5000000000,	-0.0375000000,	-1.5833333333
2743,	0.5000000000,	-0.0375000000,	-1.6666666667
2744,	0.5000000000,	-0.0375000000,	-1.7500000000
2745,	0.4998972259,	-0.0479144377,	-1.2500000000
2746,	0.4998037714,	-0.0573844935,	-1.3333333333
2747,	0.4997649010,	-0.0613233630,	-1.4166666667
2748,	0.4997533015,	-0.0624987828,	-1.5000000000
2749,	0.4997649010,	-0.0613233630,	-1.5833333333
2750,	0.4998037714,	-0.0573844935,	-1.6666666667
2751,	0.4998972259,	-0.0479144377,	-1.7500000000
2752,	0.6111111111,	-0.0270850552,	-1.2500000000
2753,	0.6111111111,	-0.0176145383,	-1.3333333333
2754,	0.6111111111,	-0.0136754770,	-1.4166666667
2755,	0.6111111111,	-0.0125000000,	-1.5000000000
2756,	0.6111111111,	-0.0136754770,	-1.5833333333
2757,	0.6111111111,	-0.0176145383,	-1.6666666667
2758,	0.6111111111,	-0.0270850552,	-1.7500000000
2759,	0.6111111111,	-0.0375000000,	-1.2500000000
2760,	0.6111111111,	-0.0375000000,	-1.3333333333
2761,	0.6111111111,	-0.0375000000,	-1.4166666667
2762,	0.6111111111,	-0.0375000000,	-1.5000000000
2763,	0.6111111111,	-0.0375000000,	-1.5833333333
2764,	0.6111111111,	-0.0375000000,	-1.6666666667
2765,	0.6111111111,	-0.0375000000,	-1.7500000000
2766,	0.6111111111,	-0.0479149448,	-1.2500000000
2767,	0.6111111111,	-0.0573854617,	-1.3333333333
2768,	0.6111111111,	-0.0613245230,	-1.4166666667
2769,	0.6111111111,	-0.0625000000,	-1.5000000000
2770,	0.6111111111,	-0.0613245230,	-1.5833333333
2771,	0.6111111111,	-0.0573854617,	-1.6666666667
2772,	0.6111111111,	-0.0479149448,	-1.7500000000
2773,	0.7222222222,	-0.0270850552,	-1.2500000000
2774,	0.7222222222,	-0.0176145383,	-1.3333333333
2775,	0.7222222222,	-0.0136754770,	-1.4166666667
2776,	0.7222222222,	-0.0125000000,	-1.5000000000
2777,	0.7222222222,	-0.0136754770,	-1.5833333333
2778,	0.7222222222,	-0.0176145383,	-1.6666666667
2779,	0.7222222222,	-0.0270850552,	-1.7500000000
2780,	0.7222222222,	-0.0375000000,	-1.2500000000
2781,	0.7222222222,	-0.0375000000,	-1.3333333333
2782,	0.7222222222,	-0.0375000000,	-1.4166666667
2783,	0.7222222222,	-0.0375000000,	-1.5000000000
2784,	0.7222222222,	-0.0375000000,	-1.5833333333
2785,	0.7222222222,	-0.0375000000,	-1.6666666667
2786,	0.7222222222,	-0.0375000000,	-1.7500000000
2787,	0.7222222222,	-0.0479149448,	-1.2500000000
2788,	0.7222222222,	-0.0573854617,	-1.3333333333
2789,	0.7222222222,	-0.0613245230,	-1.4166666667
2790,	0.7222222222,	-0.0625000000,	-1.5000000000
2791,	0.7222222222,	-0.0613245230,	-1.5833333333
2792,	0.7222222222,	-0.0573854617,	-1.6666666667
2793,	0.7222222222,	-0.0479149448,	-1.7500000000
2794,	0.8333333333,	-0.0270850552,	-1.2500000000
2795,	0.8333333333,	-0.0176145383,	-1.3333333333
2796,	0.8333333333,	-0.0136754770,	-1.4166666667
2797,	0.8333333333,	-0.0125000000,	-1.5000000000
2798,	0.8333333333,	-0.0136754770,	-1.5833333333
2799,	0.8333333333,	-0.0176145383,	-1.6666666667
2800,	0.8333333333,	-0.0270850552,	-1.7500000000
2801,	0.8333333333,	-0.0375000000,	-1.2500000000
2802,	0.8333333333,	-0.0375000000,	-1.3333333333
2803,	0.8333333333,	-0.0375000000,	-1.4166666667
2804,	0.8333333333,	-0.0375000000,	-1.5000000000
2805,	0.8333333333,	-0.0375000000,	-1.5833333333
2806,	0.8333333333,	-0.0375000000,	-1.6666666667
2807,	0.8333333333,	-0.0375000000,	-1.7500000000
2808,	0.8333333333,	-0.0479149448,	-1.2500000000
2809,	0.8333333333,	-0.0573854617,	-1.3333333333
2810,	0.8333333333,	-0.0613245230,	-1.4166666667
2811,	0.8333333333,	-0.0625000000,	-1.5000000000
2812,	0.8333333333,	-0.0613245230,	-1.5833333333
2813,	0.8333333333,	-0.0573854617,	-1.6666666667
2814,	0.8333333333,	-0.0479149448,	-1.7500000000
2815,	0.9444444444,	-0.0270850552,	-1.2500000000
2816,	0.9444444444,	-0.0176145383,	-1.3333333333
2817,	0.9444444444,	-0.0136754770,	-1.4166666667
2818,	0.9444444444,	-0.0125000000,	-1.5000000000
2819,	0.9444444444,	-0.0136754770,	-1.5833333333
2820,	0.9444444444,	-0.0176145383,	-1.6666666667
2821,	0.9444444444,	-0.0270850552,	-1.7500000000
2822,	0.9444444444,	-0.0375000000,	-1.2500000000
2823,	0.9444444444,	-0.0375000000,	-1.3333333333
2824,	0.9444444444,	-0.0375000000,	-1.4166666667
2825,	0.9444444444,	-0.0375000000,	-1.5000000000
2826,	0.9444444444,	-0.0375000000,	-1.5833333333
2827,	0.9444444444,	-0.0375000000,	-1.6666666667
2828,	0.9444444444,	-0.0375000000,	-1.7500000000
2829,	0.9444444444,	-0.0479149448,	-1.2500000000
2830,	0.9444444444,	-0.0573854617,	-1.3333333333
2831,	0.9444444444,	-0.0613245230,	-1.4166666667
2832,	0.9444444444,	-0.0625000000,	-1.5000000000
2833,	0.9444444444,	-0.0613245230,	-1.5833333333
2834,	0.9444444444,	-0.0573854617,	-1.6666666667
2835,	0.9444444444,	-0.0479149448,	-1.7500000000
2836,	1.0555555556,	-0.0270850552,	-1.2500000000
2837,	1.0555555556,	-0.0176145383,	-1.3333333333
2838,	1.0555555556,	-0.0136754770,	-1.4166666667
2839,	1.0555555556,	-0.0125000000,	-1.5000000000
2840,	1.0555555556,	-0.0136754770,	-1.5833333333
2841,	1.0555555556,	-0.0176145383,	-1.6666666667
2842,	1.0555555556,	-0.0270850552,	-1.7500000000
2843,	1.0555555556,	-0.0375000000,	-1.2500000000
2844,	1.0555555556,	-0.0375000000,	-1.3333333333
2845,	1.0555555556,	-0.0375000000,	-1.4166666667
2846,	1.0555555556,	-0.0375000000,	-1.5000000000
2847,	1.0555555556,	-0.0375000000,	-1.5833333333
2848,	1.0555555556,	-0.0375000000,	-1.6666666667
2849,	1.0555555556,	-0.0375000000,	-1.7500000000
2850,	1.0555555556,	-0.0479149448,	-1.2500000000
2851,	1.0555555556,	-0.0573854617,	-1.3333333333
2852,	1.0555555556,	-0.0613245230,	-1.4166666667
2853,	1.0555555556,	-0.0625000000,	-1.5000000000
2854,	1.0555555556,	-0.0613245230,	-1.5833333333
2855,	1.0555555556,	-0.0573854617,	-1.6666666667
2856,	1.0555555556,	-0.0479149448,	-1.7500000000
2857,	1.1666666667,	-0.0270850552,	-1.2500000000
2858,	1.1666666667,	-0.0176145383,	-1.3333333333
2859,	1.1666666667,	-0.0136754770,	-1.4166666667
2860,	1.1666666667,	-0.0125000000,	-1.5000000000
2861,	1.1666666667,	-0.0136754770,	-1.5833333333
2862,	1.1666666667,	-0.0176145383,	-1.6666666667
2863,	1.1666666667,	-0.0270850552,	-1.7500000000
2864,	1.1666666667,	-0.0375000000,	-1.2500000000
2865,	1.1666666667,	-0.0375000000,	-1.3333333333
2866,	1.1666666667,	-0.0375000000,	-1.4166666667
2867,	1.1666666667,	-0.0375000000,	-1.5000000000
2868,	1.1666666667,	-0.0375000000,	-1.5833333333
2869,	1.1666666667,	-0.0375000000,	-1.6666666667
2870,	1.1666666667,	-0.0375000000,	-1.7500000000
2871,	1.1666666667,	-0.0479149448,	-1.2500000000
2872,	1.1666666667,	-0.0573854617,	-1.3333333333
2873,	1.1666666667,	-0.0613245230,	-1.4166666667
2874,	1.1666666667,	-0.0625000000,	-1.5000000000
2875,	1.1666666667,	-0.0613245230,	-1.5833333333
2876,	1.1666666667,	-0.0573854617,	-1.6666666667
2877,	1.1666666667,	-0.0479149448,	-1.7500000000
2878,	1.2777777778,	-0.0270850552,	-1.2500000000
2879,	1.2777777778,	-0.0176145383,	-1.3333333333
2880,	1.2777777778,	-0.0136754770,	-1.4166666667
2881,	1.2777777778,	-0.0125000000,	-1.5000000000
2882,	1.2777777778,	-0.0136754770,	-1.5833333333
2883,	1.2777777778,	-0.0176145383,	-1.6666666667
2884,	1.2777777778,	-0.0270850552,	-1.7500000000
2885,	1.2777777778,	-0.0375000000,	-1.2500000000
2886,	1.2777777778,	-0.0375000000,	-1.3333333333
2887,	1.2777777778,	-0.0375000000,	-1.4166666667
2888,	1.2777777778,	-0.0375000000,	-1.5000000000
2889,	1.2777777778,	-0.0375000000,	-1.5833333333
2890,	1.2777777778,	-0.0375000000,	-1.6666666667
2891,	1.2777777778,	-0.0375000000,	-1.7500000000
2892,	1.2777777778,	-0.0479149448,	-1.2500000000
2893,	1.2777777778,	-0.0573854617,	-1.3333333333
2894,	1.2777777778,	-0.0613245230,	-1.4166666667
2895,	1.2777777778,	-0.0625000000,	-1.5000000000
2896,	1.2777777778,	-0.0613245230,	-1.5833333333
2897,	1.2777777778,	-0.0573854617,	-1.6666666667
2898,	1.2777777778,	-0.0479149448,	-1.7500000000
2899,	1.3888888889,	-0.0270850552,	-1.2500000000
2900,	1.3888888889,	-0.0176145383,	-1.3333333333
2901,	1.3888888889,	-0.0136754770,	-1.4166666667
2902,	1.3888888889,	-0.0125000000,	-1.5000000000
2903,	1.3888888889,	-0.0136754770,	-1.5833333333
2904,	1.3888888889,	-0.0176145383,	-1.6666666667
2905,	1.3888888889,	-0.0270850552,	-1.7500000000
2906,	1.3888888889,	-0.0375000000,	-1.2500000000
2907,	1.3888888889,	-0.0375000000,	-1.3333333333
2908,	1.3888888889,	-0.0375000000,	-1.4166666667
2909,	1.3888888889,	-0.0375000000,	-1.5000000000
2910,	1.3888888889,	-0.0375000000,	-1.5833333333
2911,	1.3888888889,	-0.0375000000,	-1.6666666667
2912,	1.3888888889,	-0.0375000000,	-1.7500000000
2913,	1.3888888889,	-0.0479149448,	-1.2500000000
2914,	1.3888888889,	-0.0573854617,	-1.3333333333
2915,	1.3888888889,	-0.0613245230,	-1.4166666667
2916,	1.3888888889,	-0.0625000000,	-1.5000000000
2917,	1.3888888889,	-0.0613245230,	-1.5833333333
2918,	1.3888888889,	-0.0573854617,	-1.6666666667
2919,	1.3888888889,	-0.0479149448,	-1.7500000000
2920,	1.5000000000,	-0.0270850552,	-1.2500000000
2921,	1.5000000000,	-0.0176145383,	-1.3333333333
2922,	1.5000000000,	-0.0136754770,	-1.4166666667
2923,	1.5000000000,	-0.0125000000,	-1.5000000000
2924,	1.5000000000,	-0.0136754770,	-1.5833333333
2925,	1.5000000000,	-0.0176145383,	-1.6666666667
2926,	1.5000000000,	-0.0270850552,	-1.7500000000
2927,	1.5000000000,	-0.0375000000,	-1.2500000000
2928,	1.5000000000,	-0.0375000000,	-1.3333333333
2929,	1.5000000000,	-0.0375000000,	-1.4166666667
2930,	1.5000000000,	-0.0375000000,	-1.5000000000
2931,	1.5000000000,	-0.0375000000,	-1.5833333333
2932,	1.5000000000,	-0.0375000000,	-1.6666666667
2933,	1.5000000000,	-0.0375000000,	-1.7500000000
2934,	1.5000000000,	-0.0479149448,	-1.2500000000
2935,	1.5000000000,	-0.0573854617,	-1.3333333333
2936,	1.5000000000,	-0.0613245230,	-1.4166666667
2937,	1.5000000000,	-0.0625000000,	-1.5000000000
2938,	1.5000000000,	-0.0613245230,	-1.5833333333
2939,	1.5000000000,	-0.0573854617,	-1.6666666667
2940,	1.5000000000,	-0.0479149448,	-1.7500000000
2941,	-1.5000000000,	-0.0377993410,	-0.2500000000
2942,	-1.5000000000,	-0.0283288240,	-0.3333333333
2943,	-1.5000000000,	-0.0243897627,	-0.4166666667
2944,	-1.5000000000,	-0.0232142857,	-0.5000000000
2945,	-1.5000000000,	-0.0243897627,	-0.5833333333
2946,	-1.5000000000,	-0.0283288240,	-0.6666666667
2947,	-1.5000000000,	-0.0377993410,	-0.7500000000
2948,	-1.5000000000,	-0.0482142857,	-0.2500000000
2949,	-1.5000000000,	-0.0482142857,	-0.3333333333
2950,	-1.5000000000,	-0.0482142857,	-0.4166666667
2951,	-1.5000000000,	-0.0482142857,	-0.5000000000
2952,	-1.5000000000,	-0.0482142857,	-0.5833333333
2953,	-1.5000000000,	-0.0482142857,	-0.6666666667
2954,	-1.5000000000,	-0.0482142857,	-0.7500000000
2955,	-1.5000000000,	-0.0586292305,	-0.2500000000
2956,	-1.5000000000,	-0.0680997475,	-0.3333333333
2957,	-1.5000000000,	-0.0720388087,	-0.4166666667
2958,	-1.5000000000,	-0.0732142857,	-0.5000000000
2959,	-1.5000000000,	-0.0720388087,	-0.5833333333
2960,	-1.5000000000,	-0.0680997475,	-0.6666666667
2961,	-1.5000000000,	-0.0586292305,	-0.7500000000
2962,	-1.3508446736,	-0.0352337070,	-0.2500000000
2963,	-1.3511761788,	-0.0257689938,	-0.3333333333
2964,	-1.3513140613,	-0.0218323465,	-0.4166666667
2965,	-1.3513552076,	-0.0206575899,	-0.5000000000
2966,	-1.3513140613,	-0.0218323465,	-0.5833333333
2967,	-1.3511761788,	-0.0257689938,	-0.6666666667
2968,	-1.3508446736,	-0.0352337070,	-0.7500000000
2969,	-1.3504801097,	-0.0456422693,	-0.2500000000
2970,	-1.3504801097,	-0.0456422693,	-0.3333333333
2971,	-1.3504801097,	-0.0456422693,	-0.4166666667
2972,	-1.3504801097,	-0.0456422693,	-0.5000000000
2973,	-1.3504801097,	-0.0456422693,	-0.5833333333
2974,	-1.3504801097,	-0.0456422693,	-0.6666666667
2975,	-1.3504801097,	-0.0456422693,	-0.7500000000
2976,	-1.3501155459,	-0.0560508315,	-0.2500000000
2977,	-1.3497840407,	-0.0655155447,	-0.3333333333
2978,	-1.3496461581,	-0.0694521920,	-0.4166666667
2979,	-1.3496050118,	-0.0706269486,	-0.5000000000
2980,	-1.3496461581,	-0.0694521920,	-0.5833333333
2981,	-1.3497840407,	-0.0655155447,	-0.6666666667
2982,	-1.3501155459,	-0.0560508315,	-0.7500000000
2983,	-1.2305601678,	-0.0283645818,	-0.2500000000
2984,	-1.2312815896,	-0.0189215821,	-0.3333333333
2985,	-1.2315816497,	-0.0149939661,	-0.4166666667
2986,	-1.2316711923,	-0.0138219046,	-0.5000000000
2987,	-1.2315816497,	-0.0149939661,	-0.5833333333
2988,	-1.2312815896,	-0.0189215821,	-0.6666666667
2989,	-1.2305601678,	-0.0283645818,	-0.7500000000
2990,	-1.2297668038,	-0.0387492651,	-0.2500000000
2991,	-1.2297668038,	-0.0387492651,	-0.3333333333
2992,	-1.2297668038,	-0.0387492651,	-0.4166666667
2993,	-1.2297668038,	-0.0387492651,	-0.5000000000
2994,	-1.2297668038,	-0.0387492651,	-0.5833333333
2995,	-1.2297668038,	-0.0387492651,	-0.6666666667
2996,	-1.2297668038,	-0.0387492651,	-0.7500000000
2997,	-1.2289734398,	-0.0491339485,	-0.2500000000
2998,	-1.2282520181,	-0.0585769481,	-0.3333333333
2999,	-1.2279519580,	-0.0625045642,	-0.4166666667
3000,	-1.2278624154,	-0.0636766257,	-0.5000000000
3001,	-1.2279519580,	-0.0625045642,	-0.5833333333
3002,	-1.2282520181,	-0.0585769481,	-0.6666666667
3003,	-1.2289734398,	-0.0491339485,	-0.7500000000
3004,	-1.1308303121,	-0.0184243381,	-0.2500000000
3005,	-1.1319221166,	-0.0090169657,	-0.3333333333
3006,	-1.1323762297,	-0.0051041681,	-0.4166666667
3007,	-1.1325117440,	-0.0039365286,	-0.5000000000
3008,	-1.1323762297,	-0.0051041681,	-0.5833333333
3009,	-1.1319221166,	-0.0090169657,	-0.6666666667
3010,	-1.1308303121,	-0.0184243381,	-0.7500000000
3011,	-1.1296296296,	-0.0287698413,	-0.2500000000
3012,	-1.1296296296,	-0.0287698413,	-0.3333333333
3013,	-1.1296296296,	-0.0287698413,	-0.4166666667
3014,	-1.1296296296,	-0.0287698413,	-0.5000000000
3015,	-1.1296296296,	-0.0287698413,	-0.5833333333
3016,	-1.1296296296,	-0.0287698413,	-0.6666666667
3017,	-1.1296296296,	-0.0287698413,	-0.7500000000
3018,	-1.1284289471,	-0.0391153444,	-0.2500000000
3019,	-1.1273371426,	-0.0485227168,	-0.3333333333
3020,	-1.1268830296,	-0.0524355144,	-0.4166666667
3021,	-1.1267475152,	-0.0536031539,	-0.5000000000
3022,	-1.1268830296,	-0.0524355144,	-0.5833333333
3023,	-1.1273371426,	-0.0485227168,	-0.6666666667
3024,	-1.1284289471,	-0.0391153444,	-0.7500000000
3025,	-1.0432983244,	-0.0066264892,	-0.2500000000
3026,	-1.0446261044,	0.0027504876,	-0.3333333333
3027,	-1.0451783663,	0.0066506427,	-0.4166666667
3028,	-1.0453431699,	0.0078145095,	-0.5000000000
3029,	-1.0451783663,	0.0066506427,	-0.5833333333
3030,	-1.0446261044,	0.0027504876,	-0.6666666667
3031,	-1.0432983244,	-0.0066264892,	-0.7500000000
3032,	-1.0418381344,	-0.0169385655,	-0.2500000000
3033,	-1.0418381344,	-0.0169385655,	-0.3333333333
3034,	-1.0418381344,	-0.0169385655,	-0.4166666667
3035,	-1.0418381344,	-0.0169385655,	-0.5000000000
3036,	-1.0418381344,	-0.0169385655,	-0.5833333333
3037,	-1.0418381344,	-0.0169385655,	-0.6666666667
3038,	-1.0418381344,	-0.0169385655,	-0.7500000000
3039,	-1.0403779444,	-0.0272506419,	-0.2500000000
3040,	-1.0390501645,	-0.0366276187,	-0.3333333333
3041,	-1.0384979025,	-0.0405277738,	-0.4166666667
3042,	-1.0383330990,	-0.0416916406,	-0.5000000000
3043,	-1.0384979025,	-0.0405277738,	-0.5833333333
3044,	-1.0390501645,	-0.0366276187,	-0.6666666667
3045,	-1.0403779444,	-0.0272506419,	-0.7500000000
3046,	-0.9596220556,	0.0058220705,	-0.2500000000
3047,	-0.9609498355,	0.0151990472,	-0.3333333333
3048,	-0.9615020975,	0.0190992024,	-0.4166666667
3049,	-0.9616669010,	0.0202630692,	-0.5000000000
3050,	-0.9615020975,	0.0190992024,	-0.5833333333
3051,	-0.9609498355,	0.0151990472,	-0.6666666667
3052,	-0.9596220556,	0.0058220705,	-0.7500000000
3053,	-0.9581618656,	-0.0044900059,	-0.2500000000
3054,	-0.9581618656,	-0.0044900059,	-0.3333333333
3055,	-0.9581618656,	-0.0044900059,	-0.4166666667
3056,	-0.9581618656,	-0.0044900059,	-0.5000000000
3057,	-0.9581618656,	-0.0044900059,	-0.5833333333
3058,	-0.9581618656,	-0.0044900059,	-0.6666666667
3059,	-0.9581618656,	-0.0044900059,	-0.7500000000
3060,	-0.9567016756,	-0.0148020823,	-0.2500000000
3061,	-0.9553738956,	-0.0241790590,	-0.3333333333
3062,	-0.9548216337,	-0.0280792142,	-0.4166666667
3063,	-0.9546568301,	-0.0292430810,	-0.5000000000
3064,	-0.9548216337,	-0.0280792142,	-0.5833333333
3065,	-0.9553738956,	-0.0241790590,	-0.6666666667
3066,	-0.9567016756,	-0.0148020823,	-0.7500000000
3067,	-0.8715710529,	0.0176867730,	-0.2500000000
3068,	-0.8726628574,	0.0270941454,	-0.3333333333
3069,	-0.8731169704,	0.0310069430,	-0.4166666667
3070,	-0.8732524848,	0.0321745825,	-0.5000000000
3071,	-0.8731169704,	0.0310069430,	-0.5833333333
3072,	-0.8726628574,	0.0270941454,	-0.6666666667
3073,	-0.8715710529,	0.0176867730,	-0.7500000000
3074,	-0.8703703704,	0.0073412698,	-0.2500000000
3075,	-0.8703703704,	0.0073412698,	-0.3333333333
3076,	-0.8703703704,	0.0073412698,	-0.4166666667
3077,	-0.8703703704,	0.0073412698,	-0.5000000000
3078,	-0.8703703704,	0.0073412698,	-0.5833333333
3079,	-0.8703703704,	0.0073412698,	-0.6666666667
3080,	-0.8703703704,	0.0073412698,	-0.7500000000
3081,	-0.8691696879,	-0.0030042333,	-0.2500000000
3082,	-0.8680778834,	-0.0124116057,	-0.3333333333
3083,	-0.8676237703,	-0.0163244033,	-0.4166666667
3084,	-0.8674882560,	-0.0174920428,	-0.5000000000
3085,	-0.8676237703,	-0.0163244033,	-0.5833333333
3086,	-0.8680778834,	-0.0124116057,	-0.6666666667
3087,	-0.8691696879,	-0.0030042333,	-0.7500000000
3088,	-0.7710265602,	0.0277053770,	-0.2500000000
3089,	-0.7717479819,	0.0371483767,	-0.3333333333
3090,	-0.7720480420,	0.0410759927,	-0.4166666667
3091,	-0.7721375846,	0.0422480543,	-0.5000000000
3092,	-0.7720480420,	0.0410759927,	-0.5833333333
3093,	-0.7717479819,	0.0371483767,	-0.6666666667
3094,	-0.7710265602,	0.0277053770,	-0.7500000000
3095,	-0.7702331962,	0.0173206937,	-0.2500000000
3096,	-0.7702331962,	0.0173206937,	-0.3333333333
3097,	-0.7702331962,	0.0173206937,	-0.4166666667
3098,	-0.7702331962,	0.0173206937,	-0.5000000000
3099,	-0.7702331962,	0.0173206937,	-0.5833333333
3100,	-0.7702331962,	0.0173206937,	-0.6666666667
3101,	-0.7702331962,	0.0173206937,	-0.7500000000
3102,	-0.7694398322,	0.0069360104,	-0.2500000000
3103,	-0.7687184104,	-0.0025069893,	-0.3333333333
3104,	-0.7684183503,	-0.0064346053,	-0.4166666667
3105,	-0.7683288077,	-0.0076066669,	-0.5000000000
3106,	-0.7684183503,	-0.0064346053,	-0.5833333333
3107,	-0.7687184104,	-0.0025069893,	-0.6666666667
3108,	-0.7694398322,	0.0069360104,	-0.7500000000
3109,	-0.6498844541,	0.0346222600,	-0.2500000000
3110,	-0.6502159593,	0.0440869733,	-0.3333333333
3111,	-0.6503538419,	0.0480236206,	-0.4166666667
3112,	-0.6503949882,	0.0491983772,	-0.5000000000
3113,	-0.6503538419,	0.0480236206,	-0.5833333333
3114,	-0.6502159593,	0.0440869733,	-0.6666666667
3115,	-0.6498844541,	0.0346222600,	-0.7500000000
3116,	-0.6495198903,	0.0242136978,	-0.2500000000
3117,	-0.6495198903,	0.0242136978,	-0.3333333333
3118,	-0.6495198903,	0.0242136978,	-0.4166666667
3119,	-0.6495198903,	0.0242136978,	-0.5000000000
3120,	-0.6495198903,	0.0242136978,	-0.5833333333
3121,	-0.6495198903,	0.0242136978,	-0.6666666667
3122,	-0.6495198903,	0.0242136978,	-0.7500000000
3123,	-0.6491553264,	0.0138051356,	-0.2500000000
3124,	-0.6488238212,	0.0043404224,	-0.3333333333
3125,	-0.6486859387,	0.0004037751,	-0.4166666667
3126,	-0.6486447924,	-0.0007709816,	-0.5000000000
3127,	-0.6486859387,	0.0004037751,	-0.5833333333
3128,	-0.6488238212,	0.0043404224,	-0.6666666667
3129,	-0.6491553264,	0.0138051356,	-0.7500000000
3130,	-0.5001027741,	0.0372001520,	-0.2500000000
3131,	-0.5001962286,	0.0466702078,	-0.3333333333
3132,	-0.5002350990,	0.0506090773,	-0.4166666667
3133,	-0.5002466985,	0.0517844971,	-0.5000000000
3134,	-0.5002350990,	0.0506090773,	-0.5833333333
3135,	-0.5001962286,	0.0466702078,	-0.6666666667
3136,	-0.5001027741,	0.0372001520,	-0.7500000000
3137,	-0.5000000000,	0.0267857143,	-0.2500000000
3138,	-0.5000000000,	0.0267857143,	-0.3333333333
3139,	-0.5000000000,	0.0267857143,	-0.4166666667
3140,	-0.5000000000,	0.0267857143,	-0.5000000000
3141,	-0.5000000000,	0.0267857143,	-0.5833333333
3142,	-0.5000000000,	0.0267857143,	-0.6666666667
3143,	-0.5000000000,	0.0267857143,	-0.7500000000
3144,	-0.4998972259,	0.0163712766,	-0.2500000000
3145,	-0.4998037714,	0.0069012208,	-0.3333333333
3146,	-0.4997649010,	0.0029623513,	-0.4166666667
3147,	-0.4997533015,	0.0017869315,	-0.5000000000
3148,	-0.4997649010,	0.0029623513,	-0.5833333333
3149,	-0.4998037714,	0.0069012208,	-0.6666666667
3150,	-0.4998972259,	0.0163712766,	-0.7500000000
3151,	-0.3888888889,	0.0372006590,	-0.2500000000
3152,	-0.3888888889,	0.0466711760,	-0.3333333333
3153,	-0.3888888889,	0.0506102373,	-0.4166666667
3154,	-0.3888888889,	0.0517857143,	-0.5000000000
3155,	-0.3888888889,	0.0506102373,	-0.5833333333
3156,	-0.3888888889,	0.0466711760,	-0.6666666667
3157,	-0.3888888889,	0.0372006590,	-0.7500000000
3158,	-0.3888888889,	0.0267857143,	-0.2500000000
3159,	-0.3888888889,	0.0267857143,	-0.3333333333
3160,	-0.3888888889,	0.0267857143,	-0.4166666667
3161,	-0.3888888889,	0.0267857143,	-0.5000000000
3162,	-0.3888888889,	0.0267857143,	-0.5833333333
3163,	-0.3888888889,	0.0267857143,	-0.6666666667
3164,	-0.3888888889,	0.0267857143,	-0.7500000000
3165,	-0.3888888889,	0.0163707695,	-0.2500000000
3166,	-0.3888888889,	0.0069002525,	-0.3333333333
3167,	-0.3888888889,	0.0029611913,	-0.4166666667
3168,	-0.3888888889,	0.0017857143,	-0.5000000000
3169,	-0.3888888889,	0.0029611913,	-0.5833333333
3170,	-0.3888888889,	0.0069002525,	-0.6666666667
3171,	-0.3888888889,	0.0163707695,	-0.7500000000
3172,	-0.2777777778,	0.0372006590,	-0.2500000000
3173,	-0.2777777778,	0.0466711760,	-0.3333333333
3174,	-0.2777777778,	0.0506102373,	-0.4166666667
3175,	-0.2777777778,	0.0517857143,	-0.5000000000
3176,	-0.2777777778,	0.0506102373,	-0.5833333333
3177,	-0.2777777778,	0.0466711760,	-0.6666666667
3178,	-0.2777777778,	0.0372006590,	-0.7500000000
3179,	-0.2777777778,	0.0267857143,	-0.2500000000
3180,	-0.2777777778,	0.0267857143,	-0.3333333333
3181,	-0.2777777778,	0.0267857143,	-0.4166666667
3182,	-0.2777777778,	0.0267857143,	-0.5000000000
3183,	-0.2777777778,	0.0267857143,	-0.5833333333
3184,	-0.2777777778,	0.0267857143,	-0.6666666667
3185,	-0.2777777778,	0.0267857143,	-0.7500000000
3186,	-0.2777777778,	0.0163707695,	-0.2500000000
3187,	-0.2777777778,	0.0069002525,	-0.3333333333
3188,	-0.2777777778,	0.0029611913,	-0.4166666667
3189,	-0.2777777778,	0.0017857143,	-0.5000000000
3190,	-0.2777777778,	0.0029611913,	-0.5833333333
3191,	-0.2777777778,	0.0069002525,	-0.6666666667
3192,	-0.2777777778,	0.0163707695,	-0.7500000000
3193,	-0.1666666667,	0.0372006590,	-0.2500000000
3194,	-0.1666666667,	0.0466711760,	-0.3333333333
3195,	-0.1666666667,	0.0506102373,	-0.4166666667
3196,	-0.1666666667,	0.0517857143,	-0.5000000000
3197,	-0.1666666667,	0.0506102373,	-0.5833333333
3198,	-0.1666666667,	0.0466711760,	-0.6666666667
3199,	-0.1666666667,	0.0372006590,	-0.7500000000
3200,	-0.1666666667,	0.0267857143,	-0.2500000000
3201,	-0.1666666667,	0.0267857143,	-0.3333333333
3202,	-0.1666666667,	0.0267857143,	-0.4166666667
3203,	-0.1666666667,	0.0267857143,	-0.5000000000
3204,	-0.1666666667,	0.0267857143,	-0.5833333333
3205,	-0.1666666667,	0.0267857143,	-0.6666666667
3206,	-0.1666666667,	0.0267857143,	-0.7500000000
3207,	-0.1666666667,	0.0163707695,	-0.2500000000
3208,	-0.1666666667,	0.0069002525,	-0.3333333333
3209,	-0.1666666667,	0.0029611913,	-0.4166666667
3210,	-0.1666666667,	0.0017857143,	-0.5000000000
3211,	-0.1666666667,	0.0029611913,	-0.5833333333
3212,	-0.1666666667,	0.0069002525,	-0.6666666667
3213,	-0.1666666667,	0.0163707695,	-0.7500000000
3214,	-0.0555555556,	0.0372006590,	-0.2500000000
3215,	-0.0555555556,	0.0466711760,	-0.3333333333
3216,	-0.0555555556,	0.0506102373,	-0.4166666667
3217,	-0.0555555556,	0.0517857143,	-0.5000000000
3218,	-0.0555555556,	0.0506102373,	-0.5833333333
3219,	-0.0555555556,	0.0466711760,	-0.6666666667
3220,	-0.0555555556,	0.0372006590,	-0.7500000000
3221,	-0.0555555556,	0.0267857143,	-0.2500000000
3222,	-0.0555555556,	0.0267857143,	-0.3333333333
3223,	-0.0555555556,	0.0267857143,	-0.4166666667
3224,	-0.0555555556,	0.0267857143,	-0.5000000000
3225,	-0.0555555556,	0.0267857143,	-0.5833333333
3226,	-0.0555555556,	0.0267857143,	-0.6666666667
3227,	-0.0555555556,	0.0267857143,	-0.7500000000
3228,	-0.0555555556,	0.0163707695,	-0.2500000000
3229,	-0.0555555556,	0.0069002525,	-0.3333333333
3230,	-0.0555555556,	0.0029611913,	-0.4166666667
3231,	-0.0555555556,	0.0017857143,	-0.5000000000
3232,	-0.0555555556,	0.0029611913,	-0.5833333333
3233,	-0.0555555556,	0.0069002525,	-0.6666666667
3234,	-0.0555555556,	0.0163707695,	-0.7500000000
3235,	0.0555555556,	0.0372006590,	-0.2500000000
3236,	0.0555555556,	0.0466711760,	-0.3333333333
3237,	0.0555555556,	0.0506102373,	-0.4166666667
3238,	0.0555555556,	0.0517857143,	-0.5000000000
3239,	0.0555555556,	0.0506102373,	-0.5833333333
3240,	0.0555555556,	0.0466711760,	-0.6666666667
3241,	0.0555555556,	0.0372006590,	-0.7500000000
3242,	0.0555555556,	0.0267857143,	-0.2500000000
3243,	0.0555555556,	0.0267857143,	-0.3333333333
3244,	0.0555555556,	0.0267857143,	-0.4166666667
3245,	0.0555555556,	0.0267857143,	-0.5000000000
3246,	0.0555555556,	0.0267857143,	-0.5833333333
3247,	0.0555555556,	0.0267857143,	-0.6666666667
3248,	0.0555555556,	0.0267857143,	-0.7500000000
3249,	0.0555555556,	0.0163707695,	-0.2500000000
3250,	0.0555555556,	0.0069002525,	-0.3333333333
3251,	0.0555555556,	0.0029611913,	-0.4166666667
3252,	0.0555555556,	0.0017857143,	-0.5000000000
3253,	0.0555555556,	0.0029611913,	-0.5833333333
3254,	0.0555555556,	0.0069002525,	-0.6666666667
3255,	0.0555555556,	0.0163707695,	-0.7500000000
3256,	0.1666666667,	0.0372006590,	-0.2500000000
3257,	0.1666666667,	0.0466711760,	-0.3333333333
3258,	0.1666666667,	0.0506102373,	-0.4166666667
3259,	0.1666666667,	0.0517857143,	-0.5000000000
3260,	0.1666666667,	0.0506102373,	-0.5833333333
3261,	0.1666666667,	0.0466711760,	-0.6666666667
3262,	0.1666666667,	0.0372006590,	-0.7500000000
3263,	0.1666666667,	0.0267857143,	-0.2500000000
3264,	0.1666666667,	0.0267857143,	-0.3333333333
3265,	0.1666666667,	0.0267857143,	-0.4166666667
3266,	0.1666666667,	0.0267857143,	-0.5000000000
3267,	0.1666666667,	0.0267857143,	-0.5833333333
3268,	0.1666666667,	0.0267857143,	-0.6666666667
3269,	0.1666666667,	0.0267857143,	-0.7500000000
3270,	0.1666666667,	0.0163707695,	-0.2500000000
3271,	0.1666666667,	0.0069002525,	-0.3333333333
3272,	0.1666666667,	0.0029611913,	-0.4166666667
3273,	0.1666666667,	0.0017857143,	-0.5000000000
3274,	0.1666666667,	0.0029611913,	-0.5833333333
3275,	0.1666666667,	0.0069002525,	-0.6666666667
3276,	0.1666666667,	0.0163707695,	-0.7500000000
3277,	0.2777777778,	0.0372006590,	-0.2500000000
3278,	0.2777777778,	0.0466711760,	-0.3333333333
3279,	0.2777777778,	0.0506102373,	-0.4166666667
3280,	0.2777777778,	0.0517857143,	-0.5000000000
3281,	0.2777777778,	0.0506102373,	-0.5833333333
3282,	0.2777777778,	0.0466711760,	-0.6666666667
3283,	0.2777777778,	0.0372006590,	-0.7500000000
3284,	0.2777777778,	0.0267857143,	-0.2500000000
3285,	0.2777777778,	0.0267857143,	-0.3333333333
3286,	0.2777777778,	0.0267857143,	-0.4166666667
3287,	0.2777777778,	0.0267857143,	-0.5000000000
3288,	0.2777777778,	0.0267857143,	-0.5833333333
3289,	0.2777777778,	0.0267857143,	-0.6666666667
3290,	0.2777777778,	0.0267857143,	-0.7500000000
3291,	0.2777777778,	0.0163707695,	-0.2500000000
3292,	0.2777777778,	0.0069002525,	-0.3333333333
3293,	0.2777777778,	0.0029611913,	-0.4166666667
3294,	0.2777777778,	0.0017857143,	-0.5000000000
3295,	0.2777777778,	0.0029611913,	-0.5833333333
3296,	0.2777777778,	0.0069002525,	-0.6666666667
3297,	0.2777777778,	0.0163707695,	-0.7500000000
3298,	0.3888888889,	0.0372006590,	-0.2500000000
3299,	0.3888888889,	0.0466711760,	-0.3333333333
3300,	0.3888888889,	0.0506102373,	-0.4166666667
3301,	0.3888888889,	0.0517857143,	-0.5000000000
3302,	0.3888888889,	0.0506102373,	-0.5833333333
3303,	0.3888888889,	0.0466711760,	-0.6666666667
3304,	0.3888888889,	0.0372006590,	-0.7500000000
3305,	0.3888888889,	0.0267857143,	-0.2500000000
3306,	0.3888888889,	0.0267857143,	-0.3333333333
3307,	0.3888888889,	0.0267857143,	-0.4166666667
3308,	0.3888888889,	0.0267857143,	-0.5000000000
3309,	0.3888888889,	0.0267857143,	-0.5833333333
3310,	0.3888888889,	0.0267857143,	-0.6666666667
3311,	0.3888888889,	0.0267857143,	-0.7500000000
3312,	0.3888888889,	0.0163707695,	-0.2500000000
3313,	0.3888888889,	0.0069002525,	-0.3333333333
3314,	0.3888888889,	0.0029611913,	-0.4166666667
3315,	0.3888888889,	0.0017857143,	-0.5000000000
3316,	0.3888888889,	0.0029611913,	-0.5833333333
3317,	0.3888888889,	0.0069002525,	-0.6666666667
3318,	0.3888888889,	0.0163707695,	-0.7500000000
3319,	0.5001027741,	0.0372001520,	-0.2500000000
3320,	0.5001962286,	0.0466702078,	-0.3333333333
3321,	0.5002350990,	0.0506090773,	-0.4166666667
3322,	0.5002466985,	0.0517844971,	-0.5000000000
3323,	0.5002350990,	0.0506090773,	-0.5833333333
3324,	0.5001962286,	0.0466702078,	-0.6666666667
3325,	0.5001027741,	0.0372001520,	-0.7500000000
3326,	0.5000000000,	0.0267857143,	-0.2500000000
3327,	0.5000000000,	0.0267857143,	-0.3333333333
3328,	0.5000000000,	0.0267857143,	-0.4166666667
3329,	0.5000000000,	0.0267857143,	-0.5000000000
3330,	0.5000000000,	0.0267857143,	-0.5833333333
3331,	0.5000000000,	0.0267857143,	-0.6666666667
3332,	0.5000000000,	0.0267857143,	-0.7500000000
3333,	0.4998972259,	0.0163712766,	-0.2500000000
3334,	0.4998037714,	0.0069012208,	-0.3333333333
3335,	0.4997649010,	0.0029623513,	-0.4166666667
3336,	0.4997533015,	0.0017869315,	-0.5000000000
3337,	0.4997649010,	0.0029623513,	-0.5833333333
3338,	0.4998037714,	0.0069012208,	-0.6666666667
3339,	0.4998972259,	0.0163712766,	-0.7500000000
3340,	0.6498844541,	0.0346222600,	-0.2500000000
3341,	0.6502159593,	0.0440869733,	-0.3333333333
3342,	0.6503538419,	0.0480236206,	-0.4166666667
3343,	0.6503949882,	0.0491983772,	-0.5000000000
3344,	0.6503538419,	0.0480236206,	-0.5833333333
3345,	0.6502159593,	0.0440869733,	-0.6666666667
3346,	0.6498844541,	0.0346222600,	-0.7500000000
3347,	0.6495198903,	0.0242136978,	-0.2500000000
3348,	0.6495198903,	0.0242136978,	-0.3333333333
3349,	0.6495198903,	0.0242136978,	-0.4166666667
3350,	0.6495198903,	0.0242136978,	-0.5000000000
3351,	0.6495198903,	0.0242136978,	-0.5833333333
3352,	0.6495198903,	0.0242136978,	-0.6666666667
3353,	0.6495198903,	0.0242136978,	-0.7500000000
3354,	0.6491553264,	0.0138051356,	-0.2500000000
3355,	0.6488238212,	0.0043404224,	-0.3333333333
3356,	0.6486859387,	0.0004037751,	-0.4166666667
3357,	0.6486447924,	-0.0007709816,	-0.5000000000
3358,	0.6486859387,	0.0004037751,	-0.5833333333
3359,	0.6488238212,	0.0043404224,	-0.6666666667
3360,	0.6491553264,	0.0138051356,	-0.7500000000
3361,	0.7710265602,	0.0277053770,	-0.2500000000
3362,	0.7717479819,	0.0371483767,	-0.3333333333
3363,	0.7720480420,	0.0410759927,	-0.4166666667
3364,	0.7721375846,	0.0422480543,	-0.5000000000
3365,	0.7720480420,	0.0410759927,	-0.5833333333
3366,	0.7717479819,	0.0371483767,	-0.6666666667
3367,	0.7710265602,	0.0277053770,	-0.7500000000
3368,	0.7702331962,	0.0173206937,	-0.2500000000
3369,	0.7702331962,	0.0173206937,	-0.3333333333
3370,	0.7702331962,	0.0173206937,	-0.4166666667
3371,	0.7702331962,	0.0173206937,	-0.5000000000
3372,	0.7702331962,	0.0173206937,	-0.5833333333
3373,	0.7702331962,	0.0173206937,	-0.6666666667
3374,	0.7702331962,	0.0173206937,	-0.7500000000
3375,	0.7694398322,	0.0069360104,	-0.2500000000
3376,	0.7687184104,	-0.0025069893,	-0.3333333333
3377,	0.7684183503,	-0.0064346053,	-0.4166666667
3378,	0.7683288077,	-0.0076066669,	-0.5000000000
3379,	0.7684183503,	-0.0064346053,	-0.5833333333
3380,	0.7687184104,	-0.0025069893,	-0.6666666667
3381,	0.7694398322,	0.0069360104,	-0.7500000000
3382,	0.8715710529,	0.0176867730,	-0.2500000000
3383,	0.8726628574,	0.0270941454,	-0.3333333333
3384,	0.8731169704,	0.0310069430,	-0.4166666667
3385,	0.8732524848,	0.0321745825,	-0.5000000000
3386,	0.8731169704,	0.0310069430,	-0.5833333333
3387,	0.8726628574,	0.0270941454,	-0.6666666667
3388,	0.8715710529,	0.0176867730,	-0.7500000000
3389,	0.8703703704,	0.0073412698,	-0.2500000000
3390,	0.8703703704,	0.0073412698,	-0.3333333333
3391,	0.8703703704,	0.0073412698,	-0.4166666667
3392,	0.8703703704,	0.0073412698,	-0.5000000000
3393,	0.8703703704,	0.0073412698,	-0.5833333333
3394,	0.8703703704,	0.0073412698,	-0.6666666667
3395,	0.8703703704,	0.0073412698,	-0.7500000000
3396,	0.8691696879,	-0.0030042333,	-0.2500000000
3397,	0.8680778834,	-0.0124116057,	-0.3333333333
3398,	0.8676237703,	-0.0163244033,	-0.4166666667
3399,	0.8674882560,	-0.0174920428,	-0.5000000000
3400,	0.8676237703,	-0.0163244033,	-0.5833333333
3401,	0.8680778834,	-0.0124116057,	-0.6666666667
3402,	0.8691696879,	-0.0030042333,	-0.7500000000
3403,	0.9596220556,	0.0058220705,	-0.2500000000
3404,	0.9609498355,	0.0151990472,	-0.3333333333
3405,	0.9615020975,	0.0190992024,	-0.4166666667
3406,	0.9616669010,	0.0202630692,	-0.5000000000
3407,	0.9615020975,	0.0190992024,	-0.5833333333
3408,	0.9609498355,	0.0151990472,	-0.6666666667
3409,	0.9596220556,	0.0058220705,	-0.7500000000
3410,	0.9581618656,	-0.0044900059,	-0.2500000000
3411,	0.9581618656,	-0.0044900059,	-0.3333333333
3412,	0.9581618656,	-0.0044900059,	-0.4166666667
3413,	0.9581618656,	-0.0044900059,	-0.5000000000
3414,	0.9581618656,	-0.0044900059,	-0.5833333333
3415,	0.9581618656,	-0.0044900059,	-0.6666666667
3416,	0.9581618656,	-0.0044900059,	-0.7500000000
3417,	0.9567016756,	-0.0148020823,	-0.2500000000
3418,	0.9553738956,	-0.0241790590,	-0.3333333333
3419,	0.9548216337,	-0.0280792142,	-0.4166666667
3420,	0.9546568301,	-0.0292430810,	-0.5000000000
3421,	0.9548216337,	-0.0280792142,	-0.5833333333
3422,	0.9553738956,	-0.0241790590,	-0.6666666667
3423,	0.9567016756,	-0.0148020823,	-0.7500000000
3424,	1.0432983244,	-0.0066264892,	-0.2500000000
3425,	1.0446261044,	0.0027504876,	-0.3333333333
3426,	1.0451783663,	0.0066506427,	-0.4166666667
3427,	1.0453431699,	0.0078145095,	-0.5000000000
3428,	1.0451783663,	0.0066506427,	-0.5833333333
3429,	1.0446261044,	0.0027504876,	-0.6666666667
3430,	1.0432983244,	-0.0066264892,	-0.7500000000
3431,	1.0418381344,	-0.0169385655,	-0.2500000000
3432,	1.0418381344,	-0.0169385655,	-0.3333333333
3433,	1.0418381344,	-0.0169385655,	-0.4166666667
3434,	1.0418381344,	-0.0169385655,	-0.5000000000
3435,	1.0418381344,	-0.0169385655,	-0.5833333333
3436,	1.0418381344,	-0.0169385655,	-0.6666666667
3437,	1.0418381344,	-0.0169385655,	-0.7500000000
3438,	1.0403779444,	-0.0272506419,	-0.2500000000
3439,	1.0390501645,	-0.0366276187,	-0.3333333333
3440,	1.0384979025,	-0.0405277738,	-0.4166666667
3441,	1.0383330990,	-0.0416916406,	-0.5000000000
3442,	1.0384979025,	-0.0405277738,	-0.5833333333
3443,	1.0390501645,	-0.0366276187,	-0.6666666667
3444,	1.0403779444,	-0.0272506419,	-0.7500000000
3445,	1.1308303121,	-0.0184243381,	-0.2500000000
3446,	1.1319221166,	-0.0090169657,	-0.3333333333
3447,	1.1323762297,	-0.0051041681,	-0.4166666667
3448,	1.1325117440,	-0.0039365286,	-0.5000000000
3449,	1.1323762297,	-0.0051041681,	-0.5833333333
3450,	1.1319221166,	-0.0090169657,	-0.6666666667
3451,	1.1308303121,	-0.0184243381,	-0.7500000000
3452,	1.1296296296,	-0.0287698413,	-0.2500000000
3453,	1.1296296296,	-0.0287698413,	-0.3333333333
3454,	1.1296296296,	-0.0287698413,	-0.4166666667
3455,	1.1296296296,	-0.0287698413,	-0.5000000000
3456,	1.1296296296,	-0.0287698413,	-0.5833333333
3457,	1.1296296296,	-0.0287698413,	-0.6666666667
3458,	1.1296296296,	-0.0287698413,	-0.7500000000
3459,	1.1284289471,	-0.0391153444,	-0.2500000000
3460,	1.1273371426,	-0.0485227168,	-0.3333333333
3461,	1.1268830296,	-0.0524355144,	-0.4166666667
3462,	1.1267475152,	-0.0536031539,	-0.5000000000
3463,	1.1268830296,	-0.0524355144,	-0.5833333333
3464,	1.1273371426,	-0.0485227168,	-0.6666666667
3465,	1.1284289471,	-0.0391153444,	-0.7500000000
3466,	1.2305601678,	-0.0283645818,	-0.2500000000
3467,	1.2312815896,	-0.0189215821,	-0.3333333333
3468,	1.2315816497,	-0.0149939661,	-0.4166666667
3469,	1.2316711923,	-0.0138219046,	-0.5000000000
3470,	1.2315816497,	-0.0149939661,	-0.5833333333
3471,	1.2312815896,	-0.0189215821,	-0.6666666667
3472,	1.2305601678,	-0.0283645818,	-0.7500000000
3473,	1.2297668038,	-0.0387492651,	-0.2500000000
3474,	1.2297668038,	-0.0387492651,	-0.3333333333
3475,	1.2297668038,	-0.0387492651,	-0.4166666667
3476,	1.2297668038,	-0.0387492651,	-0.5000000000
3477,	1.2297668038,	-0.0387492651,	-0.5833333333
3478,	1.2297668038,	-0.0387492651,	-0.6666666667
3479,	1.2297668038,	-0.0387492651,	-0.7500000000
3480,	1.2289734398,	-0.0491339485,	-0.2500000000
3481,	1.2282520181,	-0.0585769481,	-0.3333333333
3482,	1.2279519580,	-0.0625045642,	-0.4166666667
3483,	1.2278624154,	-0.0636766257,	-0.5000000000
3484,	1.2279519580,	-0.0625045642,	-0.5833333333
3485,	1.2282520181,	-0.0585769481,	-0.6666666667
3486,	1.2289734398,	-0.0491339485,	-0.7500000000
3487,	1.3508446736,	-0.0352337070,	-0.2500000000
3488,	1.3511761788,	-0.0257689938,	-0.3333333333
3489,	1.3513140613,	-0.0218323465,	-0.4166666667
3490,	1.3513552076,	-0.0206575899,	-0.5000000000
3491,	1.3513140613,	-0.0218323465,	-0.5833333333
3492,	1.3511761788,	-0.0257689938,	-0.6666666667
3493,	1.3508446736,	-0.0352337070,	-0.7500000000
3494,	1.3504801097,	-0.0456422693,	-0.2500000000
3495,	1.3504801097,	-0.0456422693,	-0.3333333333
3496,	1.3504801097,	-0.0456422693,	-0.4166666667
3497,	1.3504801097,	-0.0456422693,	-0.5000000000
3498,	1.3504801097,	-0.0456422693,	-0.5833333333
3499,	1.3504801097,	-0.0456422693,	-0.6666666667
3500,	1.3504801097,	-0.0456422693,	-0.7500000000
3501,	1.3501155459,	-0.0560508315,	-0.2500000000
3502,	1.3497840407,	-0.0655155447,	-0.3333333333
3503,	1.3496461581,	-0.0694521920,	-0.4166666667
3504,	1.3496050118,	-0.0706269486,	-0.5000000000
3505,	1.3496461581,	-0.0694521920,	-0.5833333333
3506,	1.3497840407,	-0.0655155447,	-0.6666666667
3507,	1.3501155459,	-0.0560508315,	-0.7500000000
3508,	1.5000000000,	-0.0377993410,	-0.2500000000
3509,	1.5000000000,	-0.0283288240,	-0.3333333333
3510,	1.5000000000,	-0.0243897627,	-0.4166666667
3511,	1.5000000000,	-0.0232142857,	-0.5000000000
3512,	1.5000000000,	-0.0243897627,	-0.5833333333
3513,	1.5000000000,	-0.0283288240,	-0.6666666667
3514,	1.5000000000,	-0.0377993410,	-0.7500000000
3515,	1.5000000000,	-0.0482142857,	-0.2500000000
3516,	1.5000000000,	-0.0482142857,	-0.3333333333
3517,	1.5000000000,	-0.0482142857,	-0.4166666667
3518,	1.5000000000,	-0.0482142857,	-0.5000000000
3519,	1.5000000000,	-0.0482142857,	-0.5833333333
3520,	1.5000000000,	-0.0482142857,	-0.6666666667
3521,	1.5000000000,	-0.0482142857,	-0.7500000000
3522,	1.5000000000,	-0.0586292305,	-0.2500000000
3523,	1.5000000000,	-0.0680997475,	-0.3333333333
3524,	1.5000000000,	-0.0720388087,	-0.4166666667
3525,	1.5000000000,	-0.0732142857,	-0.5000000000
3526,	1.5000000000,	-0.0720388087,	-0.5833333333
3527,	1.5000000000,	-0.0680997475,	-0.6666666667
3528,	1.5000000000,	-0.0586292305,	-0.7500000000
3529,	-1.5000000000,	-0.0270850552,	0.7500000000
3530,	-1.5000000000,	-0.0176145383,	0.6666666667
3531,	-1.5000000000,	-0.0136754770,	0.5833333333
3532,	-1.5000000000,	-0.0125000000,	0.5000000000
3533,	-1.5000000000,	-0.0136754770,	0.4166666667
3534,	-1.5000000000,	-0.0176145383,	0.3333333333
3535,	-1.5000000000,	-0.0270850552,	0.2500000000
3536,	-1.5000000000,	-0.0375000000,	0.7500000000
3537,	-1.5000000000,	-0.0375000000,	0.6666666667
3538,	-1.5000000000,	-0.0375000000,	0.5833333333
3539,	-1.5000000000,	-0.0375000000,	0.5000000000
3540,	-1.5000000000,	-0.0375000000,	0.4166666667
3541,	-1.5000000000,	-0.0375000000,	0.3333333333
3542,	-1.5000000000,	-0.0375000000,	0.2500000000
3543,	-1.5000000000,	-0.0479149448,	0.7500000000
3544,	-1.5000000000,	-0.0573854617,	0.6666666667
3545,	-1.5000000000,	-0.0613245230,	0.5833333333
3546,	-1.5000000000,	-0.0625000000,	0.5000000000
3547,	-1.5000000000,	-0.0613245230,	0.4166666667
3548,	-1.5000000000,	-0.0573854617,	0.3333333333
3549,	-1.5000000000,	-0.0479149448,	0.2500000000
3550,	-1.3888888889,	-0.0270850552,	0.7500000000
3551,	-1.3888888889,	-0.0176145383,	0.6666666667
3552,	-1.3888888889,	-0.0136754770,	0.5833333333
3553,	-1.3888888889,	-0.0125000000,	0.5000000000
3554,	-1.3888888889,	-0.0136754770,	0.4166666667
3555,	-1.3888888889,	-0.0176145383,	0.3333333333
3556,	-1.3888888889,	-0.0270850552,	0.2500000000
3557,	-1.3888888889,	-0.0375000000,	0.7500000000
3558,	-1.3888888889,	-0.0375000000,	0.6666666667
3559,	-1.3888888889,	-0.0375000000,	0.5833333333
3560,	-1.3888888889,	-0.0375000000,	0.5000000000
3561,	-1.3888888889,	-0.0375000000,	0.4166666667
3562,	-1.3888888889,	-0.0375000000,	0.3333333333
3563,	-1.3888888889,	-0.0375000000,	0.2500000000
3564,	-1.3888888889,	-0.0479149448,	0.7500000000
3565,	-1.3888888889,	-0.0573854617,	0.6666666667
3566,	-1.3888888889,	-0.0613245230,	0.5833333333
3567,	-1.3888888889,	-0.0625000000,	0.5000000000
3568,	-1.3888888889,	-0.0613245230,	0.4166666667
3569,	-1.3888888889,	-0.0573854617,	0.3333333333
3570,	-1.3888888889,	-0.0479149448,	0.2500000000
3571,	-1.2777777778,	-0.0270850552,	0.7500000000
3572,	-1.2777777778,	-0.0176145383,	0.6666666667
3573,	-1.2777777778,	-0.0136754770,	0.5833333333
3574,	-1.2777777778,	-0.0125000000,	0.5000000000
3575,	-1.2777777778,	-0.0136754770,	0.4166666667
3576,	-1.2777777778,	-0.0176145383,	0.3333333333
3577,	-1.2777777778,	-0.0270850552,	0.2500000000
3578,	-1.2777777778,	-0.0375000000,	0.7500000000
3579,	-1.2777777778,	-0.0375000000,	0.6666666667
3580,	-1.2777777778,	-0.0375000000,	0.5833333333
3581,	-1.2777777778,	-0.0375000000,	0.5000000000
3582,	-1.2777777778,	-0.0375000000,	0.4166666667
3583,	-1.2777777778,	-0.0375000000,	0.3333333333
3584,	-1.2777777778,	-0.0375000000,	0.2500000000
3585,	-1.2777777778,	-0.0479149448,	0.7500000000
3586,	-1.2777777778,	-0.0573854617,	0.6666666667
3587,	-1.2777777778,	-0.0613245230,	0.5833333333
3588,	-1.2777777778,	-0.0625000000,	0.5000000000
3589,	-1.2777777778,	-0.0613245230,	0.4166666667
3590,	-1.2777777778,	-0.0573854617,	0.3333333333
3591,	-1.2777777778,	-0.0479149448,	0.2500000000
3592,	-1.1666666667,	-0.0270850552,	0.7500000000
3593,	-1.1666666667,	-0.0176145383,	0.6666666667
3594,	-1.1666666667,	-0.0136754770,	0.5833333333
3595,	-1.1666666667,	-0.0125000000,	0.5000000000
3596,	-1.1666666667,	-0.0136754770,	0.4166666667
3597,	-1.1666666667,	-0.0176145383,	0.3333333333
3598,	-1.1666666667,	-0.0270850552,	0.2500000000
3599,	-1.1666666667,	-0.0375000000,	0.7500000000
3600,	-1.1666666667,	-0.0375000000,	0.6666666667
3601,	-1.1666666667,	-0.0375000000,	0.5833333333
3602,	-1.1666666667,	-0.0375000000,	0.5000000000
3603,	-1.1666666667,	-0.0375000000,	0.4166666667
3604,	-1.1666666667,	-0.0375000000,	0.3333333333
3605,	-1.1666666667,	-0.0375000000,	0.2500000000
3606,	-1.1666666667,	-0.0479149448,	0.7500000000
3607,	-1.1666666667,	-0.0573854617,	0.6666666667
3608,	-1.1666666667,	-0.0613245230,	0.5833333333
3609,	-1.1666666667,	-0.0625000000,	0.5000000000
3610,	-1.1666666667,	-0.0613245230,	0.4166666667
3611,	-1.1666666667,	-0.0573854617,	0.3333333333
3612,	-1.1666666667,	-0.0479149448,	0.2500000000
3613,	-1.0555555556,	-0.0270850552,	0.7500000000
3614,	-1.0555555556,	-0.0176145383,	0.6666666667
3615,	-1.0555555556,	-0.0136754770,	0.5833333333
3616,	-1.0555555556,	-0.0125000000,	0.5000000000
3617,	-1.0555555556,	-0.0136754770,	0.4166666667
3618,	-1.0555555556,	-0.0176145383,	0.3333333333
3619,	-1.0555555556,	-0.0270850552,	0.2500000000
3620,	-1.0555555556,	-0.0375000000,	0.7500000000
3621,	-1.0555555556,	-0.0375000000,	0.6666666667
3622,	-1.0555555556,	-0.0375000000,	0.5833333333
3623,	-1.0555555556,	-0.0375000000,	0.5000000000
3624,	-1.0555555556,	-0.0375000000,	0.4166666667
3625,	-1.0555555556,	-0.0375000000,	0.3333333333
3626,	-1.0555555556,	-0.0375000000,	0.2500000000
3627,	-1.0555555556,	-0.0479149448,	0.7500000000
3628,	-1.0555555556,	-0.0573854617,	0.6666666667
3629,	-1.0555555556,	-0.0613245230,	0.5833333333
3630,	-1.0555555556,	-0.0625000000,	0.5000000000
3631,	-1.0555555556,	-0.0613245230,	0.4166666667
3632,	-1.0555555556,	-0.0573854617,	0.3333333333
3633,	-1.0555555556,	-0.0479149448,	0.2500000000
3634,	-0.9444444444,	-0.0270850552,	0.7500000000
3635,	-0.9444444444,	-0.0176145383,	0.6666666667
3636,	-0.9444444444,	-0.0136754770,	0.5833333333
3637,	-0.9444444444,	-0.0125000000,	0.5000000000
3638,	-0.9444444444,	-0.0136754770,	0.4166666667
3639,	-0.9444444444,	-0.0176145383,	0.3333333333
3640,	-0.9444444444,	-0.0270850552,	0.2500000000
3641,	-0.9444444444,	-0.0375000000,	0.7500000000
3642,	-0.9444444444,	-0.0375000000,	0.6666666667
3643,	-0.9444444444,	-0.0375000000,	0.5833333333
3644,	-0.9444444444,	-0.0375000000,	0.5000000000
3645,	-0.9444444444,	-0.0375000000,	0.4166666667
3646,	-0.9444444444,	-0.0375000000,	0.3333333333
3647,	-0.9444444444,	-0.0375000000,	0.2500000000
3648,	-0.9444444444,	-0.0479149448,	0.7500000000
3649,	-0.9444444444,	-0.0573854617,	0.6666666667
3650,	-0.9444444444,	-0.0613245230,	0.5833333333
3651,	-0.9444444444,	-0.0625000000,	0.5000000000
3652,	-0.9444444444,	-0.0613245230,	0.4166666667
3653,	-0.9444444444,	-0.0573854617,	0.3333333333
3654,	-0.9444444444,	-0.0479149448,	0.2500000000
3655,	-0.8333333333,	-0.0270850552,	0.7500000000
3656,	-0.8333333333,	-0.0176145383,	0.6666666667
3657,	-0.8333333333,	-0.0136754770,	0.5833333333
3658,	-0.8333333333,	-0.0125000000,	0.5000000000
3659,	-0.8333333333,	-0.0136754770,	0.4166666667
3660,	-0.8333333333,	-0.0176145383,	0.3333333333
3661,	-0.8333333333,	-0.0270850552,	0.2500000000
3662,	-0.8333333333,	-0.0375000000,	0.7500000000
3663,	-0.8333333333,	-0.0375000000,	0.6666666667
3664,	-0.8333333333,	-0.0375000000,	0.5833333333
3665,	-0.8333333333,	-0.0375000000,	0.5000000000
3666,	-0.8333333333,	-0.0375000000,	0.4166666667
3667,	-0.8333333333,	-0.0375000000,	0.3333333333
3668,	-0.8333333333,	-0.0375000000,	0.2500000000
3669,	-0.8333333333,	-0.0479149448,	0.7500000000
3670,	-0.8333333333,	-0.0573854617,	0.6666666667
3671,	-0.8333333333,	-0.0613245230,	0.5833333333
3672,	-0.8333333333,	-0.0625000000,	0.5000000000
3673,	-0.8333333333,	-0.0613245230,	0.4166666667
3674,	-0.8333333333,	-0.0573854617,	0.3333333333
3675,	-0.8333333333,	-0.0479149448,	0.2500000000
3676,	-0.7222222222,	-0.0270850552,	0.7500000000
3677,	-0.7222222222,	-0.0176145383,	0.6666666667
3678,	-0.7222222222,	-0.0136754770,	0.5833333333
3679,	-0.7222222222,	-0.0125000000,	0.5000000000
3680,	-0.7222222222,	-0.0136754770,	0.4166666667
3681,	-0.7222222222,	-0.0176145383,	0.3333333333
3682,	-0.7222222222,	-0.0270850552,	0.2500000000
3683,	-0.7222222222,	-0.0375000000,	0.7500000000
3684,	-0.7222222222,	-0.0375000000,	0.6666666667
3685,	-0.7222222222,	-0.0375000000,	0.5833333333
3686,	-0.7222222222,	-0.0375000000,	0.5000000000
3687,	-0.7222222222,	-0.0375000000,	0.4166666667
3688,	-0.7222222222,	-0.0375000000,	0.3333333333
3689,	-0.7222222222,	-0.0375000000,	0.2500000000
3690,	-0.7222222222,	-0.0479149448,	0.7500000000
3691,	-0.7222222222,	-0.0573854617,	0.6666666667
3692,	-0.7222222222,	-0.0613245230,	0.5833333333
3693,	-0.7222222222,	-0.0625000000,	0.5000000000
3694,	-0.7222222222,	-0.0613245230,	0.4166666667
3695,	-0.7222222222,	-0.0573854617,	0.3333333333
3696,	-0.7222222222,	-0.0479149448,	0.2500000000
3697,	-0.6111111111,	-0.0270850552,	0.7500000000
3698,	-0.6111111111,	-0.0176145383,	0.6666666667
3699,	-0.6111111111,	-0.0136754770,	0.5833333333
3700,	-0.6111111111,	-0.0125000000,	0.5000000000
3701,	-0.6111111111,	-0.0136754770,	0.4166666667
3702,	-0.6111111111,	-0.0176145383,	0.3333333333
3703,	-0.6111111111,	-0.0270850552,	0.2500000000
3704,	-0.6111111111,	-0.0375000000,	0.7500000000
3705,	-0.6111111111,	-0.0375000000,	0.6666666667
3706,	-0.6111111111,	-0.0375000000,	0.5833333333
3707,	-0.6111111111,	-0.0375000000,	0.5000000000
3708,	-0.6111111111,	-0.0375000000,	0.4166666667
3709,	-0.6111111111,	-0.0375000000,	0.3333333333
3710,	-0.6111111111,	-0.0375000000,	0.2500000000
3711,	-0.6111111111,	-0.0479149448,	0.7500000000
3712,	-0.6111111111,	-0.0573854617,	0.6666666667
3713,	-0.6111111111,	-0.0613245230,	0.5833333333
3714,	-0.6111111111,	-0.0625000000,	0.5000000000
3715,	-0.6111111111,	-0.0613245230,	0.4166666667
3716,	-0.6111111111,	-0.0573854617,	0.3333333333
3717,	-0.6111111111,	-0.0479149448,	0.2500000000
3718,	-0.5001027741,	-0.0270855623,	0.7500000000
3719,	-0.5001962286,	-0.0176155065,	0.6666666667
3720,	-0.5002350990,	-0.0136766370,	0.5833333333
3721,	-0.5002466985,	-0.0125012172,	0.5000000000
3722,	-0.5002350990,	-0.0136766370,	0.4166666667
3723,	-0.5001962286,	-0.0176155065,	0.3333333333
3724,	-0.5001027741,	-0.0270855623,	0.2500000000
3725,	-0.5000000000,	-0.0375000000,	0.7500000000
3726,	-0.5000000000,	-0.0375000000,	0.6666666667
3727,	-0.5000000000,	-0.0375000000,	0.5833333333
3728,	-0.5000000000,	-0.0375000000,	0.5000000000
3729,	-0.5000000000,	-0.0375000000,	0.4166666667
3730,	-0.5000000000,	-0.0375000000,	0.3333333333
3731,	-0.5000000000,	-0.0375000000,	0.2500000000
3732,	-0.4998972259,	-0.0479144377,	0.7500000000
3733,	-0.4998037714,	-0.0573844935,	0.6666666667
3734,	-0.4997649010,	-0.0613233630,	0.5833333333
3735,	-0.4997533015,	-0.0624987828,	0.5000000000
3736,	-0.4997649010,	-0.0613233630,	0.4166666667
3737,	-0.4998037714,	-0.0573844935,	0.3333333333
3738,	-0.4998972259,	-0.0479144377,	0.2500000000
3739,	-0.3508446736,	-0.0245194213,	0.7500000000
3740,	-0.3511761788,	-0.0150547081,	0.6666666667
3741,	-0.3513140613,	-0.0111180608,	0.5833333333
3742,	-0.3513552076,	-0.0099433042,	0.5000000000
3743,	-0.3513140613,	-0.0111180608,	0.4166666667
3744,	-0.3511761788,	-0.0150547081,	0.3333333333
3745,	-0.3508446736,	-0.0245194213,	0.2500000000
3746,	-0.3504801097,	-0.0349279835,	0.7500000000
3747,	-0.3504801097,	-0.0349279835,	0.6666666667
3748,	-0.3504801097,	-0.0349279835,	0.5833333333
3749,	-0.3504801097,	-0.0349279835,	0.5000000000
3750,	-0.3504801097,	-0.0349279835,	0.4166666667
3751,	-0.3504801097,	-0.0349279835,	0.3333333333
3752,	-0.3504801097,	-0.0349279835,	0.2500000000
3753,	-0.3501155459,	-0.0453365458,	0.7500000000
3754,	-0.3497840407,	-0.0548012590,	0.6666666667
3755,	-0.3496461581,	-0.0587379063,	0.5833333333
3756,	-0.3496050118,	-0.0599126629,	0.5000000000
3757,	-0.3496461581,	-0.0587379063,	0.4166666667
3758,	-0.3497840407,	-0.0548012590,	0.3333333333
3759,	-0.3501155459,	-0.0453365458,	0.2500000000
3760,	-0.2305601678,	-0.0176502961,	0.7500000000
3761,	-0.2312815896,	-0.0082072964,	0.6666666667
3762,	-0.2315816497,	-0.0042796804,	0.5833333333
3763,	-0.2316711923,	-0.0031076189,	0.5000000000
3764,	-0.2315816497,	-0.0042796804,	0.4166666667
3765,	-0.2312815896,	-0.0082072964,	0.3333333333
3766,	-0.2305601678,	-0.0176502961,	0.2500000000
3767,	-0.2297668038,	-0.0280349794,	0.7500000000
3768,	-0.2297668038,	-0.0280349794,	0.6666666667
3769,	-0.2297668038,	-0.0280349794,	0.5833333333
3770,	-0.2297668038,	-0.0280349794,	0.5000000000
3771,	-0.2297668038,	-0.0280349794,	0.4166666667
3772,	-0.2297668038,	-0.0280349794,	0.3333333333
3773,	-0.2297668038,	-0.0280349794,	0.2500000000
3774,	-0.2289734398,	-0.0384196628,	0.7500000000
3775,	-0.2282520181,	-0.0478626624,	0.6666666667
3776,	-0.2279519580,	-0.0517902784,	0.5833333333
3777,	-0.2278624154,	-0.0529623400,	0.5000000000
3778,	-0.2279519580,	-0.0517902784,	0.4166666667
3779,	-0.2282520181,	-0.0478626624,	0.3333333333
3780,	-0.2289734398,	-0.0384196628,	0.2500000000
3781,	-0.1308303121,	-0.0077100524,	0.7500000000
3782,	-0.1319221166,	0.0016973200,	0.6666666667
3783,	-0.1323762297,	0.0056101176,	0.5833333333
3784,	-0.1325117440,	0.0067777571,	0.5000000000
3785,	-0.1323762297,	0.0056101176,	0.4166666667
3786,	-0.1319221166,	0.0016973200,	0.3333333333
3787,	-0.1308303121,	-0.0077100524,	0.2500000000
3788,	-0.1296296296,	-0.0180555556,	0.7500000000
3789,	-0.1296296296,	-0.0180555556,	0.6666666667
3790,	-0.1296296296,	-0.0180555556,	0.5833333333
3791,	-0.1296296296,	-0.0180555556,	0.5000000000
3792,	-0.1296296296,	-0.0180555556,	0.4166666667
3793,	-0.1296296296,	-0.0180555556,	0.3333333333
3794,	-0.1296296296,	-0.0180555556,	0.2500000000
3795,	-0.1284289471,	-0.0284010587,	0.7500000000
3796,	-0.1273371426,	-0.0378084311,	0.6666666667
3797,	-0.1268830296,	-0.0417212287,	0.5833333333
3798,	-0.1267475152,	-0.0428888682,	0.5000000000
3799,	-0.1268830296,	-0.0417212287,	0.4166666667
3800,	-0.1273371426,	-0.0378084311,	0.3333333333
3801,	-0.1284289471,	-0.0284010587,	0.2500000000
3802,	-0.0432983244,	0.0040877966,	0.7500000000
3803,	-0.0446261044,	0.0134647733,	0.6666666667
3804,	-0.0451783663,	0.0173649285,	0.5833333333
3805,	-0.0453431699,	0.0185287953,	0.5000000000
3806,	-0.0451783663,	0.0173649285,	0.4166666667
3807,	-0.0446261044,	0.0134647733,	0.3333333333
3808,	-0.0432983244,	0.0040877966,	0.2500000000
3809,	-0.0418381344,	-0.0062242798,	0.7500000000
3810,	-0.0418381344,	-0.0062242798,	0.6666666667
3811,	-0.0418381344,	-0.0062242798,	0.5833333333
3812,	-0.0418381344,	-0.0062242798,	0.5000000000
3813,	-0.0418381344,	-0.0062242798,	0.4166666667
3814,	-0.0418381344,	-0.0062242798,	0.3333333333
3815,	-0.0418381344,	-0.0062242798,	0.2500000000
3816,	-0.0403779444,	-0.0165363562,	0.7500000000
3817,	-0.0390501645,	-0.0259133329,	0.6666666667
3818,	-0.0384979025,	-0.0298134881,	0.5833333333
3819,	-0.0383330990,	-0.0309773549,	0.5000000000
3820,	-0.0384979025,	-0.0298134881,	0.4166666667
3821,	-0.0390501645,	-0.0259133329,	0.3333333333
3822,	-0.0403779444,	-0.0165363562,	0.2500000000
3823,	0.0403779444,	0.0165363562,	0.7500000000
3824,	0.0390501645,	0.0259133329,	0.6666666667
3825,	0.0384979025,	0.0298134881,	0.5833333333
3826,	0.0383330990,	0.0309773549,	0.5000000000
3827,	0.0384979025,	0.0298134881,	0.4166666667
3828,	0.0390501645,	0.0259133329,	0.3333333333
3829,	0.0403779444,	0.0165363562,	0.2500000000
3830,	0.0418381344,	0.0062242798,	0.7500000000
3831,	0.0418381344,	0.0062242798,	0.6666666667
3832,	0.0418381344,	0.0062242798,	0.5833333333
3833,	0.0418381344,	0.0062242798,	0.5000000000
3834,	0.0418381344,	0.0062242798,	0.4166666667
3835,	0.0418381344,	0.0062242798,	0.3333333333
3836,	0.0418381344,	0.0062242798,	0.2500000000
3837,	0.0432983244,	-0.0040877966,	0.7500000000
3838,	0.0446261044,	-0.0134647733,	0.6666666667
3839,	0.0451783663,	-0.0173649285,	0.5833333333
3840,	0.0453431699,	-0.0185287953,	0.5000000000
3841,	0.0451783663,	-0.0173649285,	0.4166666667
3842,	0.0446261044,	-0.0134647733,	0.3333333333
3843,	0.0432983244,	-0.0040877966,	0.2500000000
3844,	0.1284289471,	0.0284010587,	0.7500000000
3845,	0.1273371426,	0.0378084311,	0.6666666667
3846,	0.1268830296,	0.0417212287,	0.5833333333
3847,	0.1267475152,	0.0428888682,	0.5000000000
3848,	0.1268830296,	0.0417212287,	0.4166666667
3849,	0.1273371426,	0.0378084311,	0.3333333333
3850,	0.1284289471,	0.0284010587,	0.2500000000
3851,	0.1296296296,	0.0180555556,	0.7500000000
3852,	0.1296296296,	0.0180555556,	0.6666666667
3853,	0.1296296296,	0.0180555556,	0.5833333333
3854,	0.1296296296,	0.0180555556,	0.5000000000
3855,	0.1296296296,	0.0180555556,	0.4166666667
3856,	0.1296296296,	0.0180555556,	0.3333333333
3857,	0.1296296296,	0.0180555556,	0.2500000000
3858,	0.1308303121,	0.0077100524,	0.7500000000
3859,	0.1319221166,	-0.0016973200,	0.6666666667
3860,	0.1323762297,	-0.0056101176,	0.5833333333
3861,	0.1325117440,	-0.0067777571,	0.5000000000
3862,	0.1323762297,	-0.0056101176,	0.4166666667
3863,	0.1319221166,	-0.0016973200,	0.3333333333
3864,	0.1308303121,	0.0077100524,	0.2500000000
3865,	0.2289734398,	0.0384196628,	0.7500000000
3866,	0.2282520181,	0.0478626624,	0.6666666667
3867,	0.2279519580,	0.0517902784,	0.5833333333
3868,	0.2278624154,	0.0529623400,	0.5000000000
3869,	0.2279519580,	0.0517902784,	0.4166666667
3870,	0.2282520181,	0.0478626624,	0.3333333333
3871,	0.2289734398,	0.0384196628,	0.2500000000
3872,	0.2297668038,	0.0280349794,	0.7500000000
3873,	0.2297668038,	0.0280349794,	0.6666666667
3874,	0.2297668038,	0.0280349794,	0.5833333333
3875,	0.2297668038,	0.0280349794,	0.5000000000
3876,	0.2297668038,	0.0280349794,	0.4166666667
3877,	0.2297668038,	0.0280349794,	0.3333333333
3878,	0.2297668038,	0.0280349794,	0.2500000000
3879,	0.2305601678,	0.0176502961,	0.7500000000
3880,	0.2312815896,	0.0082072964,	0.6666666667
3881,	0.2315816497,	0.0042796804,	0.5833333333
3882,	0.2316711923,	0.0031076189,	0.5000000000
3883,	0.2315816497,	0.0042796804,	0.4166666667
3884,	0.2312815896,	0.0082072964,	0.3333333333
3885,	0.2305601678,	0.0176502961,	0.2500000000
3886,	0.3501155459,	0.0453365458,	0.7500000000
3887,	0.3497840407,	0.0548012590,	0.6666666667
3888,	0.3496461581,	0.0587379063,	0.5833333333
3889,	0.3496050118,	0.0599126629,	0.5000000000
3890,	0.3496461581,	0.0587379063,	0.4166666667
3891,	0.3497840407,	0.0548012590,	0.3333333333
3892,	0.3501155459,	0.0453365458,	0.2500000000
3893,	0.3504801097,	0.0349279835,	0.7500000000
3894,	0.3504801097,	0.0349279835,	0.6666666667
3895,	0.3504801097,	0.0349279835,	0.5833333333
3896,	0.3504801097,	0.0349279835,	0.5000000000
3897,	0.3504801097,	0.0349279835,	0.4166666667
3898,	0.3504801097,	0.0349279835,	0.3333333333
3899,	0.3504801097,	0.0349279835,	0.2500000000
3900,	0.3508446736,	0.0245194213,	0.7500000000
3901,	0.3511761788,	0.0150547081,	0.6666666667
3902,	0.3513140613,	0.0111180608,	0.5833333333
3903,	0.3513552076,	0.0099433042,	0.5000000000
3904,	0.3513140613,	0.0111180608,	0.4166666667
3905,	0.3511761788,	0.0150547081,	0.3333333333
3906,	0.3508446736,	0.0245194213,	0.2500000000
3907,	0.4998972259,	0.0479144377,	0.7500000000
3908,	0.4998037714,	0.0573844935,	0.6666666667
3909,	0.4997649010,	0.0613233630,	0.5833333333
3910,	0.4997533015,	0.0624987828,	0.5000000000
3911,	0.4997649010,	0.0613233630,	0.4166666667
3912,	0.4998037714,	0.0573844935,	0.3333333333
3913,	0.4998972259,	0.0479144377,	0.2500000000
3914,	0.5000000000,	0.0375000000,	0.7500000000
3915,	0.5000000000,	0.0375000000,	0.6666666667
3916,	0.5000000000,	0.0375000000,	0.5833333333
3917,	0.5000000000,	0.0375000000,	0.5000000000
3918,	0.5000000000,	0.0375000000,	0.4166666667
3919,	0.5000000000,	0.0375000000,	0.3333333333
3920,	0.5000000000,	0.0375000000,	0.2500000000
3921,	0.5001027741,	0.0270855623,	0.7500000000
3922,	0.5001962286,	0.0176155065,	0.6666666667
3923,	0.5002350990,	0.0136766370,	0.5833333333
3924,	0.5002466985,	0.0125012172,	0.5000000000
3925,	0.5002350990,	0.0136766370,	0.4166666667
3926,	0.5001962286,	0.0176155065,	0.3333333333
3927,	0.5001027741,	0.0270855623,	0.2500000000
3928,	0.6111111111,	0.0479149448,	0.7500000000
3929,	0.6111111111,	0.0573854617,	0.6666666667
3930,	0.6111111111,	0.0613245230,	0.5833333333
3931,	0.6111111111,	0.0625000000,	0.5000000000
3932,	0.6111111111,	0.0613245230,	0.4166666667
3933,	0.6111111111,	0.0573854617,	0.3333333333
3934,	0.6111111111,	0.0479149448,	0.2500000000
3935,	0.6111111111,	0.0375000000,	0.7500000000
3936,	0.6111111111,	0.0375000000,	0.6666666667
3937,	0.6111111111,	0.0375000000,	0.5833333333
3938,	0.6111111111,	0.0375000000,	0.5000000000
3939,	0.6111111111,	0.0375000000,	0.4166666667
3940,	0.6111111111,	0.0375000000,	0.3333333333
3941,	0.6111111111,	0.0375000000,	0.2500000000
3942,	0.6111111111,	0.0270850552,	0.7500000000
3943,	0.6111111111,	0.0176145383,	0.6666666667
3944,	0.6111111111,	0.0136754770,	0.5833333333
3945,	0.6111111111,	0.0125000000,	0.5000000000
3946,	0.6111111111,	0.0136754770,	0.4166666667
3947,	0.6111111111,	0.0176145383,	0.3333333333
3948,	0.6111111111,	0.0270850552,	0.2500000000
3949,	0.7222222222,	0.0479149448,	0.7500000000
3950,	0.7222222222,	0.0573854617,	0.6666666667
3951,	0.7222222222,	0.0613245230,	0.5833333333
3952,	0.7222222222,	0.0625000000,	0.5000000000
3953,	0.7222222222,	0.0613245230,	0.4166666667
3954,	0.7222222222,	0.0573854617,	0.3333333333
3955,	0.7222222222,	0.0479149448,	0.2500000000
3956,	0.7222222222,	0.0375000000,	0.7500000000
3957,	0.7222222222,	0.0375000000,	0.6666666667
3958,	0.7222222222,	0.0375000000,	0.5833333333
3959,	0.7222222222,	0.0375000000,	0.5000000000
3960,	0.7222222222,	0.0375000000,	0.4166666667
3961,	0.7222222222,	0.0375000000,	0.3333333333
3962,	0.7222222222,	0.0375000000,	0.2500000000
3963,	0.7222222222,	0.0270850552,	0.7500000000
3964,	0.7222222222,	0.0176145383,	0.6666666667
3965,	0.7222222222,	0.0136754770,	0.5833333333
3966,	0.7222222222,	0.0125000000,	0.5000000000
3967,	0.7222222222,	0.0136754770,	0.4166666667
3968,	0.7222222222,	0.0176145383,	0.3333333333
3969,	0.7222222222,	0.0270850552,	0.2500000000
3970,	0.8333333333,	0.0479149448,	0.7500000000
3971,	0.8333333333,	0.0573854617,	0.6666666667
3972,	0.8333333333,	0.0613245230,	0.5833333333
3973,	0.8333333333,	0.0625000000,	0.5000000000
3974,	0.8333333333,	0.0613245230,	0.4166666667
3975,	0.8333333333,	0.0573854617,	0.3333333333
3976,	0.8333333333,	0.0479149448,	0.2500000000
3977,	0.8333333333,	0.0375000000,	0.7500000000
3978,	0.8333333333,	0.0375000000,	0.6666666667
3979,	0.8333333333,	0.0375000000,	0.5833333333
3980,	0.8333333333,	0.0375000000,	0.5000000000
3981,	0.8333333333,	0.0375000000,	0.4166666667
3982,	0.8333333333,	0.0375000000,	0.3333333333
3983,	0.8333333333,	0.0375000000,	0.2500000000
3984,	0.8333333333,	0.0270850552,	0.7500000000
3985,	0.8333333333,	0.0176145383,	0.6666666667
3986,	0.8333333333,	0.0136754770,	0.5833333333
3987,	0.8333333333,	0.0125000000,	0.5000000000
3988,	0.8333333333,	0.0136754770,	0.4166666667
3989,	0.8333333333,	0.0176145383,	0.3333333333
3990,	0.8333333333,	0.0270850552,	0.2500000000
3991,	0.9444444444,	0.0479149448,	0.7500000000
3992,	0.9444444444,	0.0573854617,	0.6666666667
3993,	0.9444444444,	0.0613245230,	0.5833333333
3994,	0.9444444444,	0.0625000000,	0.5000000000
3995,	0.9444444444,	0.0613245230,	0.4166666667
3996,	0.9444444444,	0.0573854617,	0.3333333333
3997,	0.9444444444,	0.0479149448,	0.2500000000
3998,	0.9444444444,	0.0375000000,	0.7500000000
3999,	0.9444444444,	0.0375000000,	0.6666666667
4000,	0.9444444444,	0.0375000000,	0.5833333333
4001,	0.9444444444,	0.0375000000,	0.5000000000
4002,	0.9444444444,	0.0375000000,	0.4166666667
4003,	0.9444444444,	0.0375000000,	0.3333333333
4004,	0.9444444444,	0.0375000000,	0.2500000000
4005,	0.9444444444,	0.0270850552,	0.7500000000
4006,	0.9444444444,	0.0176145383,	0.6666666667
4007,	0.9444444444,	0.0136754770,	0.5833333333
4008,	0.9444444444,	0.0125000000,	0.5000000000
4009,	0.9444444444,	0.0136754770,	0.4166666667
4010,	0.9444444444,	0.0176145383,	0.3333333333
4011,	0.9444444444,	0.0270850552,	0.2500000000
4012,	1.0555555556,	0.0479149448,	0.7500000000
4013,	1.0555555556,	0.0573854617,	0.6666666667
4014,	1.0555555556,	0.0613245230,	0.5833333333
4015,	1.0555555556,	0.0625000000,	0.5000000000
4016,	1.0555555556,	0.0613245230,	0.4166666667
4017,	1.0555555556,	0.0573854617,	0.3333333333
4018,	1.0555555556,	0.0479149448,	0.2500000000
4019,	1.0555555556,	0.0375000000,	0.7500000000
4020,	1.0555555556,	0.0375000000,	0.6666666667
4021,	1.0555555556,	0.0375000000,	0.5833333333
4022,	1.0555555556,	0.0375000000,	0.5000000000
4023,	1.0555555556,	0.0375000000,	0.4166666667
4024,	1.0555555556,	0.0375000000,	0.3333333333
4025,	1.0555555556,	0.0375000000,	0.2500000000
4026,	1.0555555556,	0.0270850552,	0.7500000000
4027,	1.0555555556,	0.0176145383,	0.6666666667
4028,	1.0555555556,	0.0136754770,	0.5833333333
4029,	1.0555555556,	0.0125000000,	0.5000000000
4030,	1.0555555556,	0.0136754770,	0.4166666667
4031,	1.0555555556,	0.0176145383,	0.3333333333
4032,	1.0555555556,	0.0270850552,	0.2500000000
4033,	1.1666666667,	0.0479149448,	0.7500000000
4034,	1.1666666667,	0.0573854617,	0.6666666667
4035,	1.1666666667,	0.0613245230,	0.5833333333
4036,	1.1666666667,	0.0625000000,	0.5000000000
4037,	1.1666666667,	0.0613245230,	0.4166666667
4038,	1.1666666667,	0.0573854617,	0.3333333333
4039,	1.1666666667,	0.0479149448,	0.2500000000
4040,	1.1666666667,	0.0375000000,	0.7500000000
4041,	1.1666666667,	0.0375000000,	0.6666666667
4042,	1.1666666667,	0.0375000000,	0.5833333333
4043,	1.1666666667,	0.0375000000,	0.5000000000
4044,	1.1666666667,	0.0375000000,	0.4166666667
4045,	1.1666666667,	0.0375000000,	0.3333333333
4046,	1.1666666667,	0.0375000000,	0.2500000000
4047,	1.1666666667,	0.0270850552,	0.7500000000
4048,	1.1666666667,	0.0176145383,	0.6666666667
4049,	1.1666666667,	0.0136754770,	0.5833333333
4050,	1.1666666667,	0.0125000000,	0.5000000000
4051,	1.1666666667,	0.0136754770,	0.4166666667
4052,	1.1666666667,	0.0176145383,	0.3333333333
4053,	1.1666666667,	0.0270850552,	0.2500000000
4054,	1.2777777778,	0.0479149448,	0.7500000000
4055,	1.2777777778,	0.0573854617,	0.6666666667
4056,	1.2777777778,	0.0613245230,	0.5833333333
4057,	1.2777777778,	0.0625000000,	0.5000000000
4058,	1.2777777778,	0.0613245230,	0.4166666667
4059,	1.2777777778,	0.0573854617,	0.3333333333
4060,	1.2777777778,	0.0479149448,	0.2500000000
4061,	1.2777777778,	0.0375000000,	0.7500000000
4062,	1.2777777778,	0.0375000000,	0.6666666667
4063,	1.2777777778,	0.0375000000,	0.5833333333
4064,	1.2777777778,	0.0375000000,	0.5000000000
4065,	1.2777777778,	0.0375000000,	0.4166666667
4066,	1.2777777778,	0.0375000000,	0.3333333333
4067,	1.2777777778,	0.0375000000,	0.2500000000
4068,	1.2777777778,	0.0270850552,	0.7500000000
4069,	1.2777777778,	0.0176145383,	0.6666666667
4070,	1.2777777778,	0.0136754770,	0.5833333333
4071,	1.2777777778,	0.0125000000,	0.5000000000
4072,	1.2777777778,	0.0136754770,	0.4166666667
4073,	1.2777777778,	0.0176145383,	0.3333333333
4074,	1.2777777778,	0.0270850552,	0.2500000000
4075,	1.3888888889,	0.0479149448,	0.7500000000
4076,	1.3888888889,	0.0573854617,	0.6666666667
4077,	1.3888888889,	0.0613245230,	0.5833333333
4078,	1.3888888889,	0.0625000000,	0.5000000000
4079,	1.3888888889,	0.0613245230,	0.4166666667
4080,	1.3888888889,	0.0573854617,	0.3333333333
4081,	1.3888888889,	0.0479149448,	0.2500000000
4082,	1.3888888889,	0.0375000000,	0.7500000000
4083,	1.3888888889,	0.0375000000,	0.6666666667
4084,	1.3888888889,	0.0375000000,	0.5833333333
4085,	1.3888888889,	0.0375000000,	0.5000000000
4086,	1.3888888889,	0.0375000000,	0.4166666667
4087,	1.3888888889,	0.0375000000,	0.3333333333
4088,	1.3888888889,	0.0375000000,	0.2500000000
4089,	1.3888888889,	0.0270850552,	0.7500000000
4090,	1.3888888889,	0.0176145383,	0.6666666667
4091,	1.3888888889,	0.0136754770,	0.5833333333
4092,	1.3888888889,	0.0125000000,	0.5000000000
4093,	1.3888888889,	0.0136754770,	0.4166666667
4094,	1.3888888889,	0.0176145383,	0.3333333333
4095,	1.3888888889,	0.0270850552,	0.2500000000
4096,	1.5000000000,	0.0479149448,	0.7500000000
4097,	1.5000000000,	0.0573854617,	0.6666666667
4098,	1.5000000000,	0.0613245230,	0.5833333333
4099,	1.5000000000,	0.0625000000,	0.5000000000
4100,	1.5000000000,	0.0613245230,	0.4166666667
4101,	1.5000000000,	0.0573854617,	0.3333333333
4102,	1.5000000000,	0.0479149448,	0.2500000000
4103,	1.5000000000,	0.0375000000,	0.7500000000
4104,	1.5000000000,	0.0375000000,	0.6666666667
4105,	1.5000000000,	0.0375000000,	0.5833333333
4106,	1.5000000000,	0.0375000000,	0.5000000000
4107,	1.5000000000,	0.0375000000,	0.4166666667
4108,	1.5000000000,	0.0375000000,	0.3333333333
4109,	1.5000000000,	0.0375000000,	0.2500000000
4110,	1.5000000000,	0.0270850552,	0.7500000000
4111,	1.5000000000,	0.0176145383,	0.6666666667
4112,	1.5000000000,	0.0136754770,	0.5833333333
4113,	1.5000000000,	0.0125000000,	0.5000000000
4114,	1.5000000000,	0.0136754770,	0.4166666667
4115,	1.5000000000,	0.0176145383,	0.3333333333
4116,	1.5000000000,	0.0270850552,	0.2500000000
4117,	-1.5000000000,	0.0586292305,	1.7500000000
4118,	-1.5000000000,	0.0680997475,	1.6666666667
4119,	-1.5000000000,	0.0720388087,	1.5833333333
4120,	-1.5000000000,	0.0732142857,	1.5000000000
4121,	-1.5000000000,	0.0720388087,	1.4166666667
4122,	-1.5000000000,	0.0680997475,	1.3333333333
4123,	-1.5000000000,	0.0586292305,	1.2500000000
4124,	-1.5000000000,	0.0482142857,	1.7500000000
4125,	-1.5000000000,	0.0482142857,	1.6666666667
4126,	-1.5000000000,	0.0482142857,	1.5833333333
4127,	-1.5000000000,	0.0482142857,	1.5000000000
4128,	-1.5000000000,	0.0482142857,	1.4166666667
4129,	-1.5000000000,	0.0482142857,	1.3333333333
4130,	-1.5000000000,	0.0482142857,	1.2500000000
4131,	-1.5000000000,	0.0377993410,	1.7500000000
4132,	-1.5000000000,	0.0283288240,	1.6666666667
4133,	-1.5000000000,	0.0243897627,	1.5833333333
4134,	-1.5000000000,	0.0232142857,	1.5000000000
4135,	-1.5000000000,	0.0243897627,	1.4166666667
4136,	-1.5000000000,	0.0283288240,	1.3333333333
4137,	-1.5000000000,	0.0377993410,	1.2500000000
4138,	-1.3501155459,	0.0560508315,	1.7500000000
4139,	-1.3497840407,	0.0655155447,	1.6666666667
4140,	-1.3496461581,	0.0694521920,	1.5833333333
4141,	-1.3496050118,	0.0706269486,	1.5000000000
4142,	-1.3496461581,	0.0694521920,	1.4166666667
4143,	-1.3497840407,	0.0655155447,	1.3333333333
4144,	-1.3501155459,	0.0560508315,	1.2500000000
4145,	-1.3504801097,	0.0456422693,	1.7500000000
4146,	-1.3504801097,	0.0456422693,	1.6666666667
4147,	-1.3504801097,	0.0456422693,	1.5833333333
4148,	-1.3504801097,	0.0456422693,	1.5000000000
4149,	-1.3504801097,	0.0456422693,	1.4166666667
4150,	-1.3504801097,	0.0456422693,	1.3333333333
4151,	-1.3504801097,	0.0456422693,	1.2500000000
4152,	-1.3508446736,	0.0352337070,	1.7500000000
4153,	-1.3511761788,	0.0257689938,	1.6666666667
4154,	-1.3513140613,	0.0218323465,	1.5833333333
4155,	-1.3513552076,	0.0206575899,	1.5000000000
4156,	-1.3513140613,	0.0218323465,	1.4166666667
4157,	-1.3511761788,	0.0257689938,	1.3333333333
4158,	-1.3508446736,	0.0352337070,	1.2500000000
4159,	-1.2289734398,	0.0491339485,	1.7500000000
4160,	-1.2282520181,	0.0585769481,	1.6666666667
4161,	-1.2279519580,	0.0625045642,	1.5833333333
4162,	-1.2278624154,	0.0636766257,	1.5000000000
4163,	-1.2279519580,	0.0625045642,	1.4166666667
4164,	-1.2282520181,	0.0585769481,	1.3333333333
4165,	-1.2289734398,	0.0491339485,	1.2500000000
4166,	-1.2297668038,	0.0387492651,	1.7500000000
4167,	-1.2297668038,	0.0387492651,	1.6666666667
4168,	-1.2297668038,	0.0387492651,	1.5833333333
4169,	-1.2297668038,	0.0387492651,	1.5000000000
4170,	-1.2297668038,	0.0387492651,	1.4166666667
4171,	-1.2297668038,	0.0387492651,	1.3333333333
4172,	-1.2297668038,	0.0387492651,	1.2500000000
4173,	-1.2305601678,	0.0283645818,	1.7500000000
4174,	-1.2312815896,	0.0189215821,	1.6666666667
4175,	-1.2315816497,	0.0149939661,	1.5833333333
4176,	-1.2316711923,	0.0138219046,	1.5000000000
4177,	-1.2315816497,	0.0149939661,	1.4166666667
4178,	-1.2312815896,	0.0189215821,	1.3333333333
4179,	-1.2305601678,	0.0283645818,	1.2500000000
4180,	-1.1284289471,	0.0391153444,	1.7500000000
4181,	-1.1273371426,	0.0485227168,	1.6666666667
4182,	-1.1268830296,	0.0524355144,	1.5833333333
4183,	-1.1267475152,	0.0536031539,	1.5000000000
4184,	-1.1268830296,	0.0524355144,	1.4166666667
4185,	-1.1273371426,	0.0485227168,	1.3333333333
4186,	-1.1284289471,	0.0391153444,	1.2500000000
4187,	-1.1296296296,	0.0287698413,	1.7500000000
4188,	-1.1296296296,	0.0287698413,	1.6666666667
4189,	-1.1296296296,	0.0287698413,	1.5833333333
4190,	-1.1296296296,	0.0287698413,	1.5000000000
4191,	-1.1296296296,	0.0287698413,	1.4166666667
4192,	-1.1296296296,	0.0287698413,	1.3333333333
4193,	-1.1296296296,	0.0287698413,	1.2500000000
4194,	-1.1308303121,	0.0184243381,	1.7500000000
4195,	-1.1319221166,	0.0090169657,	1.6666666667
4196,	-1.1323762297,	0.0051041681,	1.5833333333
4197,	-1.1325117440,	0.0039365286,	1.5000000000
4198,	-1.1323762297,	0.0051041681,	1.4166666667
4199,	-1.1319221166,	0.0090169657,	1.3333333333
4200,	-1.1308303121,	0.0184243381,	1.2500000000
4201,	-1.0403779444,	0.0272506419,	1.7500000000
4202,	-1.0390501645,	0.0366276187,	1.6666666667
4203,	-1.0384979025,	0.0405277738,	1.5833333333
4204,	-1.0383330990,	0.0416916406,	1.5000000000
4205,	-1.0384979025,	0.0405277738,	1.4166666667
4206,	-1.0390501645,	0.0366276187,	1.3333333333
4207,	-1.0403779444,	0.0272506419,	1.2500000000
4208,	-1.0418381344,	0.0169385655,	1.7500000000
4209,	-1.0418381344,	0.0169385655,	1.6666666667
4210,	-1.0418381344,	0.0169385655,	1.5833333333
4211,	-1.0418381344,	0.0169385655,	1.5000000000
4212,	-1.0418381344,	0.0169385655,	1.4166666667
4213,	-1.0418381344,	0.0169385655,	1.3333333333
4214,	-1.0418381344,	0.0169385655,	1.2500000000
4215,	-1.0432983244,	0.0066264892,	1.7500000000
4216,	-1.0446261044,	-0.0027504876,	1.6666666667
4217,	-1.0451783663,	-0.0066506427,	1.5833333333
4218,	-1.0453431699,	-0.0078145095,	1.5000000000
4219,	-1.0451783663,	-0.0066506427,	1.4166666667
4220,	-1.0446261044,	-0.0027504876,	1.3333333333
4221,	-1.0432983244,	0.0066264892,	1.2500000000
4222,	-0.9567016756,	0.0148020823,	1.7500000000
4223,	-0.9553738956,	0.0241790590,	1.6666666667
4224,	-0.9548216337,	0.0280792142,	1.5833333333
4225,	-0.9546568301,	0.0292430810,	1.5000000000
4226,	-0.9548216337,	0.0280792142,	1.4166666667
4227,	-0.9553738956,	0.0241790590,	1.3333333333
4228,	-0.9567016756,	0.0148020823,	1.2500000000
4229,	-0.9581618656,	0.0044900059,	1.7500000000
4230,	-0.9581618656,	0.0044900059,	1.6666666667
4231,	-0.9581618656,	0.0044900059,	1.5833333333
4232,	-0.9581618656,	0.0044900059,	1.5000000000
4233,	-0.9581618656,	0.0044900059,	1.4166666667
4234,	-0.9581618656,	0.0044900059,	1.3333333333
4235,	-0.9581618656,	0.0044900059,	1.2500000000
4236,	-0.9596220556,	-0.0058220705,	1.7500000000
4237,	-0.9609498355,	-0.0151990472,	1.6666666667
4238,	-0.9615020975,	-0.0190992024,	1.5833333333
4239,	-0.9616669010,	-0.0202630692,	1.5000000000
4240,	-0.9615020975,	-0.0190992024,	1.4166666667
4241,	-0.9609498355,	-0.0151990472,	1.3333333333
4242,	-0.9596220556,	-0.0058220705,	1.2500000000
4243,	-0.8691696879,	0.0030042333,	1.7500000000
4244,	-0.8680778834,	0.0124116057,	1.6666666667
4245,	-0.8676237703,	0.0163244033,	1.5833333333
4246,	-0.8674882560,	0.0174920428,	1.5000000000
4247,	-0.8676237703,	0.0163244033,	1.4166666667
4248,	-0.8680778834,	0.0124116057,	1.3333333333
4249,	-0.8691696879,	0.0030042333,	1.2500000000
4250,	-0.8703703704,	-0.0073412698,	1.7500000000
4251,	-0.8703703704,	-0.0073412698,	1.6666666667
4252,	-0.8703703704,	-0.0073412698,	1.5833333333
4253,	-0.8703703704,	-0.0073412698,	1.5000000000
4254,	-0.8703703704,	-0.0073412698,	1.4166666667
4255,	-0.8703703704,	-0.0073412698,	1.3333333333
4256,	-0.8703703704,	-0.0073412698,	1.2500000000
4257,	-0.8715710529,	-0.0176867730,	1.7500000000
4258,	-0.8726628574,	-0.0270941454,	1.6666666667
4259,	-0.8731169704,	-0.0310069430,	1.5833333333
4260,	-0.8732524848,	-0.0321745825,	1.5000000000
4261,	-0.8731169704,	-0.0310069430,	1.4166666667
4262,	-0.8726628574,	-0.0270941454,	1.3333333333
4263,	-0.8715710529,	-0.0176867730,	1.2500000000
4264,	-0.7694398322,	-0.0069360104,	1.7500000000
4265,	-0.7687184104,	0.0025069893,	1.6666666667
4266,	-0.7684183503,	0.0064346053,	1.5833333333
4267,	-0.7683288077,	0.0076066669,	1.5000000000
4268,	-0.7684183503,	0.0064346053,	1.4166666667
4269,	-0.7687184104,	0.0025069893,	1.3333333333
4270,	-0.7694398322,	-0.0069360104,	1.2500000000
4271,	-0.7702331962,	-0.0173206937,	1.7500000000
4272,	-0.7702331962,	-0.0173206937,	1.6666666667
4273,	-0.7702331962,	-0.0173206937,	1.5833333333
4274,	-0.7702331962,	-0.0173206937,	1.5000000000
4275,	-0.7702331962,	-0.0173206937,	1.4166666667
4276,	-0.7702331962,	-0.0173206937,	1.3333333333
4277,	-0.7702331962,	-0.0173206937,	1.2500000000
4278,	-0.7710265602,	-0.0277053770,	1.7500000000
4279,	-0.7717479819,	-0.0371483767,	1.6666666667
4280,	-0.7720480420,	-0.0410759927,	1.5833333333
4281,	-0.7721375846,	-0.0422480543,	1.5000000000
4282,	-0.7720480420,	-0.0410759927,	1.4166666667
4283,	-0.7717479819,	-0.0371483767,	1.3333333333
4284,	-0.7710265602,	-0.0277053770,	1.2500000000
4285,	-0.6491553264,	-0.0138051356,	1.7500000000
4286,	-0.6488238212,	-0.0043404224,	1.6666666667
4287,	-0.6486859387,	-0.0004037751,	1.5833333333
4288,	-0.6486447924,	0.0007709816,	1.5000000000
4289,	-0.6486859387,	-0.0004037751,	1.4166666667
4290,	-0.6488238212,	-0.0043404224,	1.3333333333
4291,	-0.6491553264,	-0.0138051356,	1.2500000000
4292,	-0.6495198903,	-0.0242136978,	1.7500000000
4293,	-0.6495198903,	-0.0242136978,	1.6666666667
4294,	-0.6495198903,	-0.0242136978,	1.5833333333
4295,	-0.6495198903,	-0.0242136978,	1.5000000000
4296,	-0.6495198903,	-0.0242136978,	1.4166666667
4297,	-0.6495198903,	-0.0242136978,	1.3333333333
4298,	-0.6495198903,	-0.0242136978,	1.2500000000
4299,	-0.6498844541,	-0.0346222600,	1.7500000000
4300,	-0.6502159593,	-0.0440869733,	1.6666666667
4301,	-0.6503538419,	-0.0480236206,	1.5833333333
4302,	-0.6503949882,	-0.0491983772,	1.5000000000
4303,	-0.6503538419,	-0.0480236206,	1.4166666667
4304,	-0.6502159593,	-0.0440869733,	1.3333333333
4305,	-0.6498844541,	-0.0346222600,	1.2500000000
4306,	-0.4998972259,	-0.0163712766,	1.7500000000
4307,	-0.4998037714,	-0.0069012208,	1.6666666667
4308,	-0.4997649010,	-0.0029623513,	1.5833333333
4309,	-0.4997533015,	-0.0017869315,	1.5000000000
4310,	-0.4997649010,	-0.0029623513,	1.4166666667
4311,	-0.4998037714,	-0.0069012208,	1.3333333333
4312,	-0.4998972259,	-0.0163712766,	1.2500000000
4313,	-0.5000000000,	-0.0267857143,	1.7500000000
4314,	-0.5000000000,	-0.0267857143,	1.6666666667
4315,	-0.5000000000,	-0.0267857143,	1.5833333333
4316,	-0.5000000000,	-0.0267857143,	1.5000000000
4317,	-0.5000000000,	-0.0267857143,	1.4166666667
4318,	-0.5000000000,	-0.0267857143,	1.3333333333
4319,	-0.5000000000,	-0.0267857143,	1.2500000000
4320,	-0.5001027741,	-0.0372001520,	1.7500000000
4321,	-0.5001962286,	-0.0466702078,	1.6666666667
4322,	-0.5002350990,	-0.0506090773,	1.5833333333
4323,	-0.5002466985,	-0.0517844971,	1.5000000000
4324,	-0.5002350990,	-0.0506090773,	1.4166666667
4325,	-0.5001962286,	-0.0466702078,	1.3333333333
4326,	-0.5001027741,	-0.0372001520,	1.2500000000
4327,	-0.3888888889,	-0.0163707695,	1.7500000000
4328,	-0.3888888889,	-0.0069002525,	1.6666666667
4329,	-0.3888888889,	-0.0029611913,	1.5833333333
4330,	-0.3888888889,	-0.0017857143,	1.5000000000
4331,	-0.3888888889,	-0.0029611913,	1.4166666667
4332,	-0.3888888889,	-0.0069002525,	1.3333333333
4333,	-0.3888888889,	-0.0163707695,	1.2500000000
4334,	-0.3888888889,	-0.0267857143,	1.7500000000
4335,	-0.3888888889,	-0.0267857143,	1.6666666667
4336,	-0.3888888889,	-0.0267857143,	1.5833333333
4337,	-0.3888888889,	-0.0267857143,	1.5000000000
4338,	-0.3888888889,	-0.0267857143,	1.4166666667
4339,	-0.3888888889,	-0.0267857143,	1.3333333333
4340,	-0.3888888889,	-0.0267857143,	1.2500000000
4341,	-0.3888888889,	-0.0372006590,	1.7500000000
4342,	-0.3888888889,	-0.0466711760,	1.6666666667
4343,	-0.3888888889,	-0.0506102373,	1.5833333333
4344,	-0.3888888889,	-0.0517857143,	1.5000000000
4345,	-0.3888888889,	-0.0506102373,	1.4166666667
4346,	-0.3888888889,	-0.0466711760,	1.3333333333
4347,	-0.3888888889,	-0.0372006590,	1.2500000000
4348,	-0.2777777778,	-0.0163707695,	1.7500000000
4349,	-0.2777777778,	-0.0069002525,	1.6666666667
4350,	-0.2777777778,	-0.0029611913,	1.5833333333
4351,	-0.2777777778,	-0.0017857143,	1.5000000000
4352,	-0.2777777778,	-0.0029611913,	1.4166666667
4353,	-0.2777777778,	-0.0069002525,	1.3333333333
4354,	-0.2777777778,	-0.0163707695,	1.2500000000
4355,	-0.2777777778,	-0.0267857143,	1.7500000000
4356,	-0.2777777778,	-0.0267857143,	1.6666666667
4357,	-0.2777777778,	-0.0267857143,	1.5833333333
4358,	-0.2777777778,	-0.0267857143,	1.5000000000
4359,	-0.2777777778,	-0.0267857143,	1.4166666667
4360,	-0.2777777778,	-0.0267857143,	1.3333333333
4361,	-0.2777777778,	-0.0267857143,	1.2500000000
4362,	-0.2777777778,	-0.0372006590,	1.7500000000
4363,	-0.2777777778,	-0.0466711760,	1.6666666667
4364,	-0.2777777778,	-0.0506102373,	1.5833333333
4365,	-0.2777777778,	-0.0517857143,	1.5000000000
4366,	-0.2777777778,	-0.0506102373,	1.4166666667
4367,	-0.2777777778,	-0.0466711760,	1.3333333333
4368,	-0.2777777778,	-0.0372006590,	1.2500000000
4369,	-0.1666666667,	-0.0163707695,	1.7500000000
4370,	-0.1666666667,	-0.0069002525,	1.6666666667
4371,	-0.1666666667,	-0.0029611913,	1.5833333333
4372,	-0.1666666667,	-0.0017857143,	1.5000000000
4373,	-0.1666666667,	-0.0029611913,	1.4166666667
4374,	-0.1666666667,	-0.0069002525,	1.3333333333
4375,	-0.1666666667,	-0.0163707695,	1.2500000000
4376,	-0.1666666667,	-0.0267857143,	1.7500000000
4377,	-0.1666666667,	-0.0267857143,	1.6666666667
4378,	-0.1666666667,	-0.0267857143,	1.5833333333
4379,	-0.1666666667,	-0.0267857143,	1.5000000000
4380,	-0.1666666667,	-0.0267857143,	1.4166666667
4381,	-0.1666666667,	-0.0267857143,	1.3333333333
4382,	-0.1666666667,	-0.0267857143,	1.2500000000
4383,	-0.1666666667,	-0.0372006590,	1.7500000000
4384,	-0.1666666667,	-0.0466711760,	1.6666666667
4385,	-0.1666666667,	-0.0506102373,	1.5833333333
4386,	-0.1666666667,	-0.0517857143,	1.5000000000
4387,	-0.1666666667,	-0.0506102373,	1.4166666667
4388,	-0.1666666667,	-0.0466711760,	1.3333333333
4389,	-0.1666666667,	-0.0372006590,	1.2500000000
4390,	-0.0555555556,	-0.0163707695,	1.7500000000
4391,	-0.0555555556,	-0.0069002525,	1.6666666667
4392,	-0.0555555556,	-0.0029611913,	1.5833333333
4393,	-0.0555555556,	-0.0017857143,	1.5000000000
4394,	-0.0555555556,	-0.0029611913,	1.4166666667
4395,	-0.0555555556,	-0.0069002525,	1.3333333333
4396,	-0.0555555556,	-0.0163707695,	1.2500000000
4397,	-0.0555555556,	-0.0267857143,	1.7500000000
4398,	-0.0555555556,	-0.0267857143,	1.6666666667
4399,	-0.0555555556,	-0.0267857143,	1.5833333333
4400,	-0.0555555556,	-0.0267857143,	1.5000000000
4401,	-0.0555555556,	-0.0267857143,	1.4166666667
4402,	-0.0555555556,	-0.0267857143,	1.3333333333
4403,	-0.0555555556,	-0.0267857143,	1.2500000000
4404,	-0.0555555556,	-0.0372006590,	1.7500000000
4405,	-0.0555555556,	-0.0466711760,	1.6666666667
4406,	-0.0555555556,	-0.0506102373,	1.5833333333
4407,	-0.0555555556,	-0.0517857143,	1.5000000000
4408,	-0.0555555556,	-0.0506102373,	1.4166666667
4409,	-0.0555555556,	-0.0466711760,	1.3333333333
4410,	-0.0555555556,	-0.0372006590,	1.2500000000
4411,	0.0555555556,	-0.0163707695,	1.7500000000
4412,	0.0555555556,	-0.0069002525,	1.6666666667
4413,	0.0555555556,	-0.0029611913,	1.5833333333
4414,	0.0555555556,	-0.0017857143,	1.5000000000
4415,	0.0555555556,	-0.0029611913,	1.4166666667
4416,	0.0555555556,	-0.0069002525,	1.3333333333
4417,	0.0555555556,	-0.0163707695,	1.2500000000
4418,	0.0555555556,	-0.0267857143,	1.7500000000
4419,	0.0555555556,	-0.0267857143,	1.6666666667
4420,	0.0555555556,	-0.0267857143,	1.5833333333
4421,	0.0555555556,	-0.0267857143,	1.5000000000
4422,	0.0555555556,	-0.0267857143,	1.4166666667
4423,	0.0555555556,	-0.0267857143,	1.3333333333
4424,	0.0555555556,	-0.0267857143,	1.2500000000
4425,	0.0555555556,	-0.0372006590,	1.7500000000
4426,	0.0555555556,	-0.0466711760,	1.6666666667
4427,	0.0555555556,	-0.0506102373,	1.5833333333
4428,	0.0555555556,	-0.0517857143,	1.5000000000
4429,	0.0555555556,	-0.0506102373,	1.4166666667
4430,	0.0555555556,	-0.0466711760,	1.3333333333
4431,	0.0555555556,	-0.0372006590,	1.2500000000
4432,	0.1666666667,	-0.0163707695,	1.7500000000
4433,	0.1666666667,	-0.0069002525,	1.6666666667
4434,	0.1666666667,	-0.0029611913,	1.5833333333
4435,	0.1666666667,	-0.0017857143,	1.5000000000
4436,	0.1666666667,	-0.0029611913,	1.4166666667
4437,	0.1666666667,	-0.0069002525,	1.3333333333
4438,	0.1666666667,	-0.0163707695,	1.2500000000
4439,	0.1666666667,	-0.0267857143,	1.7500000000
4440,	0.1666666667,	-0.0267857143,	1.6666666667
4441,	0.1666666667,	-0.0267857143,	1.5833333333
4442,	0.1666666667,	-0.0267857143,	1.5000000000
4443,	0.1666666667,	-0.0267857143,	1.4166666667
4444,	0.1666666667,	-0.0267857143,	1.3333333333
4445,	0.1666666667,	-0.0267857143,	1.2500000000
4446,	0.1666666667,	-0.0372006590,	1.7500000000
4447,	0.1666666667,	-0.0466711760,	1.6666666667
4448,	0.1666666667,	-0.0506102373,	1.5833333333
4449,	0.1666666667,	-0.0517857143,	1.5000000000
4450,	0.1666666667,	-0.0506102373,	1.4166666667
4451,	0.1666666667,	-0.0466711760,	1.3333333333
4452,	0.1666666667,	-0.0372006590,	1.2500000000
4453,	0.2777777778,	-0.0163707695,	1.7500000000
4454,	0.2777777778,	-0.0069002525,	1.6666666667
4455,	0.2777777778,	-0.0029611913,	1.5833333333
4456,	0.2777777778,	-0.0017857143,	1.5000000000
4457,	0.2777777778,	-0.0029611913,	1.4166666667
4458,	0.2777777778,	-0.0069002525,	1.3333333333
4459,	0.2777777778,	-0.0163707695,	1.2500000000
4460,	0.2777777778,	-0.0267857143,	1.7500000000
4461,	0.2777777778,	-0.0267857143,	1.6666666667
4462,	0.2777777778,	-0.0267857143,	1.5833333333
4463,	0.2777777778,	-0.0267857143,	1.5000000000
4464,	0.2777777778,	-0.0267857143,	1.4166666667
4465,	0.2777777778,	-0.0267857143,	1.3333333333
4466,	0.2777777778,	-0.0267857143,	1.2500000000
4467,	0.2777777778,	-0.0372006590,	1.7500000000
4468,	0.2777777778,	-0.0466711760,	1.6666666667
4469,	0.2777777778,	-0.0506102373,	1.5833333333
4470,	0.2777777778,	-0.0517857143,	1.5000000000
4471,	0.2777777778,	-0.0506102373,	1.4166666667
4472,	0.2777777778,	-0.0466711760,	1.3333333333
4473,	0.2777777778,	-0.0372006590,	1.2500000000
4474,	0.3888888889,	-0.0163707695,	1.7500000000
4475,	0.3888888889,	-0.0069002525,	1.6666666667
4476,	0.3888888889,	-0.0029611913,	1.5833333333
4477,	0.3888888889,	-0.0017857143,	1.5000000000
4478,	0.3888888889,	-0.0029611913,	1.4166666667
4479,	0.3888888889,	-0.0069002525,	1.3333333333
4480,	0.3888888889,	-0.0163707695,	1.2500000000
4481,	0.3888888889,	-0.0267857143,	1.7500000000
4482,	0.3888888889,	-0.0267857143,	1.6666666667
4483,	0.3888888889,	-0.0267857143,	1.5833333333
4484,	0.3888888889,	-0.0267857143,	1.5000000000
4485,	0.3888888889,	-0.0267857143,	1.4166666667
4486,	0.3888888889,	-0.0267857143,	1.3333333333
4487,	0.3888888889,	-0.0267857143,	1.2500000000
4488,	0.3888888889,	-0.0372006590,	1.7500000000
4489,	0.3888888889,	-0.0466711760,	1.6666666667
4490,	0.3888888889,	-0.0506102373,	1.5833333333
4491,	0.3888888889,	-0.0517857143,	1.5000000000
4492,	0.3888888889,	-0.0506102373,	1.4166666667
4493,	0.3888888889,	-0.0466711760,	1.3333333333
4494,	0.3888888889,	-0.0372006590,	1.2500000000
4495,	0.4998972259,	-0.0163712766,	1.7500000000
4496,	0.4998037714,	-0.0069012208,	1.6666666667
4497,	0.4997649010,	-0.0029623513,	1.5833333333
4498,	0.4997533015,	-0.0017869315,	1.5000000000
4499,	0.4997649010,	-0.0029623513,	1.4166666667
4500,	0.4998037714,	-0.0069012208,	1.3333333333
4501,	0.4998972259,	-0.0163712766,	1.2500000000
4502,	0.5000000000,	-0.0267857143,	1.7500000000
4503,	0.5000000000,	-0.0267857143,	1.6666666667
4504,	0.5000000000,	-0.0267857143,	1.5833333333
4505,	0.5000000000,	-0.0267857143,	1.5000000000
4506,	0.5000000000,	-0.0267857143,	1.4166666667
4507,	0.5000000000,	-0.0267857143,	1.3333333333
4508,	0.5000000000,	-0.0267857143,	1.2500000000
4509,	0.5001027741,	-0.0372001520,	1.7500000000
4510,	0.5001962286,	-0.0466702078,	1.6666666667
4511,	0.5002350990,	-0.0506090773,	1.5833333333
4512,	0.5002466985,	-0.0517844971,	1.5000000000
4513,	0.5002350990,	-0.0506090773,	1.4166666667
4514,	0.5001962286,	-0.0466702078,	1.3333333333
4515,	0.5001027741,	-0.0372001520,	1.2500000000
4516,	0.6491553264,	-0.0138051356,	1.7500000000
4517,	0.6488238212,	-0.0043404224,	1.6666666667
4518,	0.6486859387,	-0.0004037751,	1.5833333333
4519,	0.6486447924,	0.0007709816,	1.5000000000
4520,	0.6486859387,	-0.0004037751,	1.4166666667
4521,	0.6488238212,	-0.0043404224,	1.3333333333
4522,	0.6491553264,	-0.0138051356,	1.2500000000
4523,	0.6495198903,	-0.0242136978,	1.7500000000
4524,	0.6495198903,	-0.0242136978,	1.6666666667
4525,	0.6495198903,	-0.0242136978,	1.5833333333
4526,	0.6495198903,	-0.0242136978,	1.5000000000
4527,	0.6495198903,	-0.0242136978,	1.4166666667
4528,	0.6495198903,	-0.0242136978,	1.3333333333
4529,	0.6495198903,	-0.0242136978,	1.2500000000
4530,	0.6498844541,	-0.0346222600,	1.7500000000
4531,	0.6502159593,	-0.0440869733,	1.6666666667
4532,	0.6503538419,	-0.0480236206,	1.5833333333
4533,	0.6503949882,	-0.0491983772,	1.5000000000
4534,	0.6503538419,	-0.0480236206,	1.4166666667
4535,	0.6502159593,	-0.0440869733,	1.3333333333
4536,	0.6498844541,	-0.0346222600,	1.2500000000
4537,	0.7694398322,	-0.0069360104,	1.7500000000
4538,	0.7687184104,	0.0025069893,	1.6666666667
4539,	0.7684183503,	0.0064346053,	1.5833333333
4540,	0.7683288077,	0.0076066669,	1.5000000000
4541,	0.7684183503,	0.0064346053,	1.4166666667
4542,	0.7687184104,	0.0025069893,	1.3333333333
4543,	0.7694398322,	-0.0069360104,	1.2500000000
4544,	0.7702331962,	-0.0173206937,	1.7500000000
4545,	0.7702331962,	-0.0173206937,	1.6666666667
4546,	0.7702331962,	-0.0173206937,	1.5833333333
4547,	0.7702331962,	-0.0173206937,	1.5000000000
4548,	0.7702331962,	-0.0173206937,	1.4166666667
4549,	0.7702331962,	-0.0173206937,	1.3333333333
4550,	0.7702331962,	-0.0173206937,	1.2500000000
4551,	0.7710265602,	-0.0277053770,	1.7500000000
4552,	0.7717479819,	-0.0371483767,	1.6666666667
4553,	0.7720480420,	-0.0410759927,	1.5833333333
4554,	0.7721375846,	-0.0422480543,	1.5000000000
4555,	0.7720480420,	-0.0410759927,	1.4166666667
4556,	0.7717479819,	-0.0371483767,	1.3333333333
4557,	0.7710265602,	-0.0277053770,	1.2500000000
4558,	0.8691696879,	0.0030042333,	1.7500000000
4559,	0.8680778834,	0.0124116057,	1.6666666667
4560,	0.8676237703,	0.0163244033,	1.5833333333
4561,	0.8674882560,	0.0174920428,	1.5000000000
4562,	0.8676237703,	0.0163244033,	1.4166666667
4563,	0.8680778834,	0.0124116057,	1.3333333333
4564,	0.8691696879,	0.0030042333,	1.2500000000
4565,	0.8703703704,	-0.0073412698,	1.7500000000
4566,	0.8703703704,	-0.0073412698,	1.6666666667
4567,	0.8703703704,	-0.0073412698,	1.5833333333
4568,	0.8703703704,	-0.0073412698,	1.5000000000
4569,	0.8703703704,	-0.0073412698,	1.4166666667
4570,	0.8703703704,	-0.0073412698,	1.3333333333
4571,	0.8703703704,	-0.0073412698,	1.2500000000
4572,	0.8715710529,	-0.0176867730,	1.7500000000
4573,	0.8726628574,	-0.0270941454,	1.6666666667
4574,	0.8731169704,	-0.0310069430,	1.5833333333
4575,	0.8732524848,	-0.0321745825,	1.5000000000
4576,	0.8731169704,	-0.0310069430,	1.4166666667
4577,	0.8726628574,	-0.0270941454,	1.3333333333
4578,	0.8715710529,	-0.0176867730,	1.2500000000
4579,	0.9567016756,	0.0148020823,	1.7500000000
4580,	0.9553738956,	0.0241790590,	1.6666666667
4581,	0.9548216337,	0.0280792142,	1.5833333333
4582,	0.9546568301,	0.0292430810,	1.5000000000
4583,	0.9548216337,	0.0280792142,	1.4166666667
4584,	0.9553738956,	0.0241790590,	1.3333333333
4585,	0.9567016756,	0.0148020823,	1.2500000000
4586,	0.9581618656,	0.0044900059,	1.7500000000
4587,	0.9581618656,	0.0044900059,	1.6666666667
4588,	0.9581618656,	0.0044900059,	1.5833333333
4589,	0.9581618656,	0.0044900059,	1.5000000000
4590,	0.9581618656,	0.0044900059,	1.4166666667
4591,	0.9581618656,	0.0044900059,	1.3333333333
4592,	0.9581618656,	0.0044900059,	1.2500000000
4593,	0.9596220556,	-0.0058220705,	1.7500000000
4594,	0.9609498355,	-0.0151990472,	1.6666666667
4595,	0.9615020975,	-0.0190992024,	1.5833333333
4596,	0.9616669010,	-0.0202630692,	1.5000000000
4597,	0.9615020975,	-0.0190992024,	1.4166666667
4598,	0.9609498355,	-0.0151990472,	1.3333333333
4599,	0.9596220556,	-0.0058220705,	1.2500000000
4600,	1.0403779444,	0.0272506419,	1.7500000000
4601,	1.0390501645,	0.0366276187,	1.6666666667
4602,	1.0384979025,	0.0405277738,	1.5833333333
4603,	1.0383330990,	0.0416916406,	1.5000000000
4604,	1.0384979025,	0.0405277738,	1.4166666667
4605,	1.0390501645,	0.0366276187,	1.3333333333
4606,	1.0403779444,	0.0272506419,	1.2500000000
4607,	1.0418381344,	0.0169385655,	1.7500000000
4608,	1.0418381344,	0.0169385655,	1.6666666667
4609,	1.0418381344,	0.0169385655,	1.5833333333
4610,	1.0418381344,	0.0169385655,	1.5000000000
4611,	1.0418381344,	0.0169385655,	1.4166666667
4612,	1.0418381344,	0.0169385655,	1.3333333333
4613,	1.0418381344,	0.0169385655,	1.2500000000
4614,	1.0432983244,	0.0066264892,	1.7500000000
4615,	1.0446261044,	-0.0027504876,	1.6666666667
4616,	1.0451783663,	-0.0066506427,	1.5833333333
4617,	1.0453431699,	-0.0078145095,	1.5000000000
4618,	1.0451783663,	-0.0066506427,	1.4166666667
4619,	1.0446261044,	-0.0027504876,	1.3333333333
4620,	1.0432983244,	0.0066264892,	1.2500000000
4621,	1.1284289471,	0.0391153444,	1.7500000000
4622,	1.1273371426,	0.0485227168,	1.6666666667
4623,	1.1268830296,	0.0524355144,	1.5833333333
4624,	1.1267475152,	0.0536031539,	1.5000000000
4625,	1.1268830296,	0.0524355144,	1.4166666667
4626,	1.1273371426,	0.0485227168,	1.3333333333
4627,	1.1284289471,	0.0391153444,	1.2500000000
4628,	1.1296296296,	0.0287698413,	1.7500000000
4629,	1.1296296296,	0.0287698413,	1.6666666667
4630,	1.1296296296,	0.0287698413,	1.5833333333
4631,	1.1296296296,	0.0287698413,	1.5000000000
4632,	1.1296296296,	0.0287698413,	1.4166666667
4633,	1.1296296296,	0.0287698413,	1.3333333333
4634,	1.1296296296,	0.0287698413,	1.2500000000
4635,	1.1308303121,	0.0184243381,	1.7500000000
4636,	1.1319221166,	0.0090169657,	1.6666666667
4637,	1.1323762297,	0.0051041681,	1.5833333333
4638,	1.1325117440,	0.0039365286,	1.5000000000
4639,	1.1323762297,	0.0051041681,	1.4166666667
4640,	1.1319221166,	0.0090169657,	1.3333333333
4641,	1.1308303121,	0.0184243381,	1.2500000000
4642,	1.2289734398,	0.0491339485,	1.7500000000
4643,	1.2282520181,	0.0585769481,	1.6666666667
4644,	1.2279519580,	0.0625045642,	1.5833333333
4645,	1.2278624154,	0.0636766257,	1.5000000000
4646,	1.2279519580,	0.0625045642,	1.4166666667
4647,	1.2282520181,	0.0585769481,	1.3333333333
4648,	1.2289734398,	0.0491339485,	1.2500000000
4649,	1.2297668038,	0.0387492651,	1.7500000000
4650,	1.2297668038,	0.0387492651,	1.6666666667
4651,	1.2297668038,	0.0387492651,	1.5833333333
4652,	1.2297668038,	0.0387492651,	1.5000000000
4653,	1.2297668038,	0.0387492651,	1.4166666667
4654,	1.2297668038,	0.0387492651,	1.3333333333
4655,	1.2297668038,	0.0387492651,	1.2500000000
4656,	1.2305601678,	0.0283645818,	1.7500000000
4657,	1.2312815896,	0.0189215821,	1.6666666667
4658,	1.2315816497,	0.0149939661,	1.5833333333
4659,	1.2316711923,	0.0138219046,	1.5000000000
4660,	1.2315816497,	0.0149939661,	1.4166666667
4661,	1.2312815896,	0.0189215821,	1.3333333333
4662,	1.2305601678,	0.0283645818,	1.2500000000
4663,	1.3501155459,	0.0560508315,	1.7500000000
4664,	1.3497840407,	0.0655155447,	1.6666666667
4665,	1.3496461581,	0.0694521920,	1.5833333333
4666,	1.3496050118,	0.0706269486,	1.5000000000
4667,	1.3496461581,	0.0694521920,	1.4166666667
4668,	1.3497840407,	0.0655155447,	1.3333333333
4669,	1.3501155459,	0.0560508315,	1.2500000000
4670,	1.3504801097,	0.0456422693,	1.7500000000
4671,	1.3504801097,	0.0456422693,	1.6666666667
4672,	1.3504801097,	0.0456422693,	1.5833333333
4673,	1.3504801097,	0.0456422693,	1.5000000000
4674,	1.3504801097,	0.0456422693,	1.4166666667
4675,	1.3504801097,	0.0456422693,	1.3333333333
4676,	1.3504801097,	0.0456422693,	1.2500000000
4677,	1.3508446736,	0.0352337070,	1.7500000000
4678,	1.3511761788,	0.0257689938,	1.6666666667
4679,	1.3513140613,	0.0218323465,	1.5833333333
4680,	1.3513552076,	0.0206575899,	1.5000000000
4681,	1.3513140613,	0.0218323465,	1.4166666667
4682,	1.3511761788,	0.0257689938,	1.3333333333
4683,	1.3508446736,	0.0352337070,	1.2500000000
4684,	1.5000000000,	0.0586292305,	1.7500000000
4685,	1.5000000000,	0.0680997475,	1.6666666667
4686,	1.5000000000,	0.0720388087,	1.5833333333
4687,	1.5000000000,	0.0732142857,	1.5000000000
4688,	1.5000000000,	0.0720388087,	1.4166666667
4689,	1.5000000000,	0.0680997475,	1.3333333333
4690,	1.5000000000,	0.0586292305,	1.2500000000
4691,	1.5000000000,	0.0482142857,	1.7500000000
4692,	1.5000000000,	0.0482142857,	1.6666666667
4693,	1.5000000000,	0.0482142857,	1.5833333333
4694,	1.5000000000,	0.0482142857,	1.5000000000
4695,	1.5000000000,	0.0482142857,	1.4166666667
4696,	1.5000000000,	0.0482142857,	1.3333333333
4697,	1.5000000000,	0.0482142857,	1.2500000000
4698,	1.5000000000,	0.0377993410,	1.7500000000
4699,	1.5000000000,	0.0283288240,	1.6666666667
4700,	1.5000000000,	0.0243897627,	1.5833333333
4701,	1.5000000000,	0.0232142857,	1.5000000000
4702,	1.5000000000,	0.0243897627,	1.4166666667
4703,	1.5000000000,	0.0283288240,	1.3333333333
4704,	1.5000000000,	0.0377993410,	1.2500000000
*NSET, NSET=WARP_XMIN
1, 8, 15, 22, 29, 36, 43, 50, 57, 64, 71, 78, 85, 92, 99, 106
113, 120, 127, 134, 141, 148, 155, 162, 169, 176, 183, 190, 197, 204, 211, 218
225, 232, 239, 246, 253, 260, 267, 274, 281, 288, 295, 302, 309, 316, 323, 330
337, 344, 351, 358, 365, 372, 379, 386, 393, 400, 407, 414, 421, 428, 435, 442
449, 456, 463, 470, 477, 484, 491, 498, 505, 512, 519, 526, 533, 540, 547, 554
561, 568, 575, 582
*NSET, NSET=WARP_XMAX
1771, 1778, 1785, 1792, 1799, 1806, 1813, 1820, 1827, 1834, 1841, 1848, 1855, 1862, 1869, 1876
1883, 1890, 1897, 1904, 1911, 1918, 1925, 1932, 1939, 1946, 1953, 1960, 1967, 1974, 1981, 1988
1995, 2002, 2009, 2016, 2023, 2030, 2037, 2044, 2051, 2058, 2065, 2072, 2079, 2086, 2093, 2100
2107, 2114, 2121, 2128, 2135, 2142, 2149, 2156, 2163, 2170, 2177, 2184, 2191, 2198, 2205, 2212
2219, 2226, 2233, 2240, 2247, 2254, 2261, 2268, 2275, 2282, 2289, 2296, 2303, 2310, 2317, 2324
2331, 2338, 2345, 2352
*NSET, NSET=WARP_YMIN
18, 585
*NSET, NSET=WARP_YMAX
1180, 1747
*NSET, NSET=WARP_ZMIN
1, 2, 3, 4, 5, 6, 7, 8, 9, 10, 11, 12, 13, 14, 15, 16
17, 18, 19, 20, 21, 589, 590, 591, 592, 593, 594, 595, 596, 597, 598, 599
600, 601, 602, 603, 604, 605, 606, 607, 608, 609, 1177, 1178, 1179, 1180, 1181, 1182
1183, 1184, 1185, 1186, 1187, 1188, 1189, 1190, 1191, 1192, 1193, 1194, 1195, 1196, 1197, 1765
1766, 1767, 1768, 1769, 1770, 1771, 1772, 1773, 1774, 1775, 1776, 1777, 1778, 1779, 1780, 1781
1782, 1783, 1784, 1785
*NSET, NSET=WARP_ZMAX
568, 569, 570, 571, 572, 573, 574, 575, 576, 577, 578, 579, 580, 581, 582, 583
584, 585, 586, 587, 588, 1156, 1157, 1158, 1159, 1160, 1161, 1162, 1163, 1164, 1165, 1166
1167, 1168, 1169, 1170, 1171, 1172, 1173, 1174, 1175, 1176, 1744, 1745, 1746, 1747, 1748, 1749
1750, 1751, 1752, 1753, 1754, 1755, 1756, 1757, 1758, 1759, 1760, 1761, 1762, 1763, 1764, 2332
2333, 2334, 2335, 2336, 2337, 2338, 2339, 2340, 2341, 2342, 2343, 2344, 2345, 2346, 2347, 2348
2349, 2350, 2351, 2352
*NSET, NSET=WEFT_XMIN
2353, 2354, 2355, 2356, 2357, 2358, 2359, 2360, 2361, 2362, 2363, 2364, 2365, 2366, 2367, 2368
2369, 2370, 2371, 2372, 2373, 2941, 2942, 2943, 2944, 2945, 2946, 2947, 2948, 2949, 2950, 2951
2952, 2953, 2954, 2955, 2956, 2957, 2958, 2959, 2960, 2961, 3529, 3530, 3531, 3532, 3533, 3534
3535, 3536, 3537, 3538, 3539, 3540, 3541, 3542, 3543, 3544, 3545, 3546, 3547, 3548, 3549, 4117
4118, 4119, 4120, 4121, 4122, 4123, 4124, 4125, 4126, 4127, 4128, 4129, 4130, 4131, 4132, 4133
4134, 4135, 4136, 4137
*NSET, NSET=WEFT_XMAX
2920, 2921, 2922, 2923, 2924, 2925, 2926, 2927, 2928, 2929, 2930, 2931, 2932, 2933, 2934, 2935
2936, 2937, 2938, 2939, 2940, 3508, 3509, 3510, 3511, 3512, 3513, 3514, 3515, 3516, 3517, 3518
3519, 3520, 3521, 3522, 3523, 3524, 3525, 3526, 3527, 3528, 4096, 4097, 4098, 4099, 4100, 4101
4102, 4103, 4104, 4105, 4106, 4107, 4108, 4109, 4110, 4111, 4112, 4113, 4114, 4115, 4116, 4684
4685, 4686, 4687, 4688, 4689, 4690, 4691, 4692, 4693, 4694, 4695, 4696, 4697, 4698, 4699, 4700
4701, 4702, 4703, 4704
*NSET, NSET=WEFT_YMIN
2958, 3525
*NSET, NSET=WEFT_YMAX
4120, 4687
*NSET, NSET=WEFT_ZMIN
2359, 2366, 2373, 2380, 2387, 2394, 2401, 2408, 2415, 2422, 2429, 2436, 2443, 2450, 2457, 2464
2471, 2478, 2485, 2492, 2499, 2506, 2513, 2520, 2527, 2534, 2541, 2548, 2555, 2562, 2569, 2576
2583, 2590, 2597, 2604, 2611, 2618, 2625, 2632, 2639, 2646, 2653, 2660, 2667, 2674, 2681, 2688
2695, 2702, 2709, 2716, 2723, 2730, 2737, 2744, 2751, 2758, 2765, 2772, 2779, 2786, 2793, 2800
2807, 2814, 2821, 2828, 2835, 2842, 2849, 2856, 2863, 2870, 2877, 2884, 2891, 2898, 2905, 2912
2919, 2926, 2933, 2940
*NSET, NSET=WEFT_ZMAX
4117, 4124, 4131, 4138, 4145, 4152, 4159, 4166, 4173, 4180, 4187, 4194, 4201, 4208, 4215, 4222
4229, 4236, 4243, 4250, 4257, 4264, 4271, 4278, 4285, 4292, 4299, 4306, 4313, 4320, 4327, 4334
4341, 4348, 4355, 4362, 4369, 4376, 4383, 4390, 4397, 4404, 4411, 4418, 4425, 4432, 4439, 4446
4453, 4460, 4467, 4474, 4481, 4488, 4495, 4502, 4509, 4516, 4523, 4530, 4537, 4544, 4551, 4558
4565, 4572, 4579, 4586, 4593, 4600, 4607, 4614, 4621, 4628, 4635, 4642, 4649, 4656, 4663, 4670
4677, 4684, 4691, 4698
*NSET, NSET=WARP_SEGMENT_0
1, 2, 3, 4, 5, 6, 7, 8, 9, 10, 11, 12, 13, 14, 15, 16
17, 18, 19, 20, 21, 22, 23, 24, 25, 26, 27, 28, 29, 30, 31, 32
33, 34, 35, 36, 37, 38, 39, 40, 41, 42, 43, 44, 45, 46, 47, 48
49, 50, 51, 52, 53, 54, 55, 56, 57, 58, 59, 60, 61, 62, 63, 64
65, 66, 67, 68, 69, 70, 71, 72, 73, 74, 75, 76, 77, 78, 79, 80
81, 82, 83, 84, 85, 86, 87, 88, 89, 90, 91, 92, 93, 94, 95, 96
97, 98, 99, 100, 101, 102, 103, 104, 105, 106, 107, 108, 109, 110, 111, 112
113, 114, 115, 116, 117, 118, 119, 120, 121, 122, 123, 124, 125, 126, 127, 128
129, 130, 131, 132, 133, 134, 135, 136, 137, 138, 139, 140, 141, 142, 143, 144
145, 146, 147, 148, 149, 150, 151, 152, 153, 154, 155, 156, 157, 158, 159, 160
161, 162, 163, 164, 165, 166, 167, 168, 169, 170, 171, 172, 173, 174, 175, 176
177, 178, 179, 180, 181, 182, 183, 184, 185, 186, 187, 188, 189, 190, 191, 192
193, 194, 195, 196, 197, 198, 199, 200, 201, 202, 203, 204, 205, 206, 207, 208
209, 210, 211, 212, 213, 214, 215, 216, 217, 218, 219, 220, 221, 222, 223, 224
225, 226, 227, 228, 229, 230, 231, 232, 233, 234, 235, 236, 237, 238, 239, 240
241, 242, 243, 244, 245, 246, 247, 248, 249, 250, 251, 252, 253, 254, 255, 256
257, 258, 259, 260, 261, 262, 263, 264, 265, 266, 267, 268, 269, 270, 271, 272
273, 274, 275, 276, 277, 278, 279, 280, 281, 282, 283, 284, 285, 286, 287, 288
289, 290, 291, 292, 293, 294, 295, 296, 297, 298, 299, 300, 301, 302, 303, 304
305, 306, 307, 308, 309, 310, 311, 312, 313, 314, 315, 316, 317, 318, 319, 320
321, 322, 323, 324, 325, 326, 327, 328, 329, 330, 331, 332, 333, 334, 335, 336
337, 338, 339, 340, 341, 342, 343, 344, 345, 346, 347, 348, 349, 350, 351, 352
353, 354, 355, 356, 357, 358, 359, 360, 361, 362, 363, 364, 365, 366, 367, 368
369, 370, 371, 372, 373, 374, 375, 376, 377, 378, 379, 380, 381, 382, 383, 384
385, 386, 387, 388, 389, 390, 391, 392, 393, 394, 395, 396, 397, 398, 399, 400
401, 402, 403, 404, 405, 406, 407, 408, 409, 410, 411, 412, 413, 414, 415, 416
417, 418, 419, 420, 421, 422, 423, 424, 425, 426, 427, 428, 429, 430, 431, 432
433, 434, 435, 436, 437, 438, 439, 440, 441, 442, 443, 444, 445, 446, 447, 448
449, 450, 451, 452, 453, 454, 455, 456, 457, 458, 459, 460, 461, 462, 463, 464
465, 466, 467, 468, 469, 470, 471, 472, 473, 474, 475, 476, 477, 478, 479, 480
481, 482, 483, 484, 485, 486, 487, 488, 489, 490, 491, 492, 493, 494, 495, 496
497, 498, 499, 500, 501, 502, 503, 504, 505, 506, 507, 508, 509, 510, 511, 512
513, 514, 515, 516, 517, 518, 519, 520, 521, 522, 523, 524, 525, 526, 527, 528
529, 530, 531, 532, 533, 534, 535, 536, 537, 538, 539, 540, 541, 542, 543, 544
545, 546, 547, 548, 549, 550, 551, 552, 553, 554, 555, 556, 557, 558, 559, 560
561, 562, 563, 564, 565, 566, 567, 568, 569, 570, 571, 572, 573, 574, 575, 576
577, 578, 579, 580, 581, 582, 583, 584, 585, 586, 587, 588
*NSET, NSET=WARP_SEGMENT_1
589, 590, 591, 592, 593, 594, 595, 596, 597, 598, 599, 600, 601, 602, 603, 604
605, 606, 607, 608, 609, 610, 611, 612, 613, 614, 615, 616, 617, 618, 619, 620
621, 622, 623, 624, 625, 626, 627, 628, 629, 630, 631, 632, 633, 634, 635, 636
637, 638, 639, 640, 641, 642, 643, 644, 645, 646, 647, 648, 649, 650, 651, 652
653, 654, 655, 656, 657, 658, 659, 660, 661, 662, 663, 664, 665, 666, 667, 668
669, 670, 671, 672, 673, 674, 675, 676, 677, 678, 679, 680, 681, 682, 683, 684
685, 686, 687, 688, 689, 690, 691, 692, 693, 694, 695, 696, 697, 698, 699, 700
701, 702, 703, 704, 705, 706, 707, 708, 709, 710, 711, 712, 713, 714, 715, 716
717, 718, 719, 720, 721, 722, 723, 724, 725, 726, 727, 728, 729, 730, 731, 732
733, 734, 735, 736, 737, 738, 739, 740, 741, 742, 743, 744, 745, 746, 747, 748
749, 750, 751, 752, 753, 754, 755, 756, 757, 758, 759, 760, 761, 762, 763, 764
765, 766, 767, 768, 769, 770, 771, 772, 773, 774, 775, 776, 777, 778, 779, 780
781, 782, 783, 784, 785, 786, 787, 788, 789, 790, 791, 792, 793, 794, 795, 796
797, 798, 799, 800, 801, 802, 803, 804, 805, 806, 807, 808, 809, 810, 811, 812
813, 814, 815, 816, 817, 818, 819, 820, 821, 822, 823, 824, 825, 826, 827, 828
829, 830, 831, 832, 833, 834, 835, 836, 837, 838, 839, 840, 841, 842, 843, 844
845, 846, 847, 848, 849, 850, 851, 852, 853, 854, 855, 856, 857, 858, 859, 860
861, 862, 863, 864, 865, 866, 867, 868, 869, 870, 871, 872, 873, 874, 875, 876
877, 878, 879, 880, 881, 882, 883, 884, 885, 886, 887, 888, 889, 890, 891, 892
893, 894, 895, 896, 897, 898, 899, 900, 901, 902, 903, 904, 905, 906, 907, 908
909, 910, 911, 912, 913, 914, 915, 916, 917, 918, 919, 920, 921, 922, 923, 924
925, 926, 927, 928, 929, 930, 931, 932, 933, 934, 935, 936, 937, 938, 939, 940
941, 942, 943, 944, 945, 946, 947, 948, 949, 950, 951, 952, 953, 954, 955, 956
957, 958, 959, 960, 961, 962, 963, 964, 965, 966, 967, 968, 969, 970, 971, 972
973, 974, 975, 976, 977, 978, 979, 980, 981, 982, 983, 984, 985, 986, 987, 988
989, 990, 991, 992, 993, 994, 995, 996, 997, 998, 999, 1000, 1001, 1002, 1003, 1004
1005, 1006, 1007, 1008, 1009, 1010, 1011, 1012, 1013, 1014, 1015, 1016, 1017, 1018, 1019, 1020
1021, 1022, 1023, 1024, 1025, 1026, 1027, 1028, 1029, 1030, 1031, 1032, 1033, 1034, 1035, 1036
1037, 1038, 1039, 1040, 1041, 1042, 1043, 1044, 1045, 1046, 1047, 1048, 1049, 1050, 1051, 1052
1053, 1054, 1055, 1056, 1057, 1058, 1059, 1060, 1061, 1062, 1063, 1064, 1065, 1066, 1067, 1068
1069, 1070, 1071, 1072, 1073, 1074, 1075, 1076, 1077, 1078, 1079, 1080, 1081, 1082, 1083, 1084
1085, 1086, 1087, 1088, 1089, 1090, 1091, 1092, 1093, 1094, 1095, 1096, 1097, 1098, 1099, 1100
1101, 1102, 1103, 1104, 1105, 1106, 1107, 1108, 1109, 1110, 1111, 1112, 1113, 1114, 1115, 1116
1117, 1118, 1119, 1120, 1121, 1122, 1123, 1124, 1125, 1126, 1127, 1128, 1129, 1130, 1131, 1132
1133, 1134, 1135, 1136, 1137, 1138, 1139, 1140, 1141, 1142, 1143, 1144, 1145, 1146, 1147, 1148
1149, 1150, 1151, 1152, 1153, 1154, 1155, 1156, 1157, 1158, 1159, 1160, 1161, 1162, 1163, 1164
1165, 1166, 1167, 1168, 1169, 1170, 1171, 1172, 1173, 1174, 1175, 1176
*NSET, NSET=WARP_SEGMENT_2
1177, 1178, 1179, 1180, 1181, 1182, 1183, 1184, 1185, 1186, 1187, 1188, 1189, 1190, 1191, 1192
1193, 1194, 1195, 1196, 1197, 1198, 1199, 1200, 1201, 1202, 1203, 1204, 1205, 1206, 1207, 1208
1209, 1210, 1211, 1212, 1213, 1214, 1215, 1216, 1217, 1218, 1219, 1220, 1221, 1222, 1223, 1224
1225, 1226, 1227, 1228, 1229, 1230, 1231, 1232, 1233, 1234, 1235, 1236, 1237, 1238, 1239, 1240
1241, 1242, 1243, 1244, 1245, 1246, 1247, 1248, 1249, 1250, 1251, 1252, 1253, 1254, 1255, 1256
1257, 1258, 1259, 1260, 1261, 1262, 1263, 1264, 1265, 1266, 1267, 1268, 1269, 1270, 1271, 1272
1273, 1274, 1275, 1276, 1277, 1278, 1279, 1280, 1281, 1282, 1283, 1284, 1285, 1286, 1287, 1288
1289, 1290, 1291, 1292, 1293, 1294, 1295, 1296, 1297, 1298, 1299, 1300, 1301, 1302, 1303, 1304
1305, 1306, 1307, 1308, 1309, 1310, 1311, 1312, 1313, 1314, 1315, 1316, 1317, 1318, 1319, 1320
1321, 1322, 1323, 1324, 1325, 1326, 1327, 1328, 1329, 1330, 1331, 1332, 1333, 1334, 1335, 1336
1337, 1338, 1339, 1340, 1341, 1342, 1343, 1344, 1345, 1346, 1347, 1348, 1349, 1350, 1351, 1352
1353, 1354, 1355, 1356, 1357, 1358, 1359, 1360, 1361, 1362, 1363, 1364, 1365, 1366, 1367, 1368
1369, 1370, 1371, 1372, 1373, 1374, 1375, 1376, 1377, 1378, 1379, 1380, 1381, 1382, 1383, 1384
1385, 1386, 1387, 1388, 1389, 1390, 1391, 1392, 1393, 1394, 1395, 1396, 1397, 1398, 1399, 1400
1401, 1402, 1403, 1404, 1405, 1406, 1407, 1408, 1409, 1410, 1411, 1412, 1413, 1414, 1415, 1416
1417, 1418, 1419, 1420, 1421, 1422, 1423, 1424, 1425, 1426, 1427, 1428, 1429, 1430, 1431, 1432
1433, 1434, 1435, 1436, 1437, 1438, 1439, 1440, 1441, 1442, 1443, 1444, 1445, 1446, 1447, 1448
1449, 1450, 1451, 1452, 1453, 1454, 1455, 1456, 1457, 1458, 1459, 1460, 1461, 1462, 1463, 1464
1465, 1466, 1467, 1468, 1469, 1470, 1471, 1472, 1473, 1474, 1475, 1476, 1477, 1478, 1479, 1480
1481, 1482, 1483, 1484, 1485, 1486, 1487, 1488, 1489, 1490, 1491, 1492, 1493, 1494, 1495, 1496
1497, 1498, 1499, 1500, 1501, 1502, 1503, 1504, 1505, 1506, 1507, 1508, 1509, 1510, 1511, 1512
1513, 1514, 1515, 1516, 1517, 1518, 1519, 1520, 1521, 1522, 1523, 1524, 1525, 1526, 1527, 1528
1529, 1530, 1531, 1532, 1533, 1534, 1535, 1536, 1537, 1538, 1539, 1540, 1541, 1542, 1543, 1544
1545, 1546, 1547, 1548, 1549, 1550, 1551, 1552, 1553, 1554, 1555, 1556, 1557, 1558, 1559, 1560
1561, 1562, 1563, 1564, 1565, 1566, 1567, 1568, 1569, 1570, 1571, 1572, 1573, 1574, 1575, 1576
1577, 1578, 1579, 1580, 1581, 1582, 1583, 1584, 1585, 1586, 1587, 1588, 1589, 1590, 1591, 1592
1593, 1594, 1595, 1596, 1597, 1598, 1599, 1600, 1601, 1602, 1603, 1604, 1605, 1606, 1607, 1608
1609, 1610, 1611, 1612, 1613, 1614, 1615, 1616, 1617, 1618, 1619, 1620, 1621, 1622, 1623, 1624
1625, 1626, 1627, 1628, 1629, 1630, 1631, 1632, 1633, 1634, 1635, 1636, 1637, 1638, 1639, 1640
1641, 1642, 1643, 1644, 1645, 1646, 1647, 1648, 1649, 1650, 1651, 1652, 1653, 1654, 1655, 1656
1657, 1658, 1659, 1660, 1661, 1662, 1663, 1664, 1665, 1666, 1667, 1668, 1669, 1670, 1671, 1672
1673, 1674, 1675, 1676, 1677, 1678, 1679, 1680, 1681, 1682, 1683, 1684, 1685, 1686, 1687, 1688
1689, 1690, 1691, 1692, 1693, 1694, 1695, 1696, 1697, 1698, 1699, 1700, 1701, 1702, 1703, 1704
1705, 1706, 1707, 1708, 1709, 1710, 1711, 1712, 1713, 1714, 1715, 1716, 1717, 1718, 1719, 1720
1721, 1722, 1723, 1724, 1725, 1726, 1727, 1728, 1729, 1730, 1731, 1732, 1733, 1734, 1735, 1736
1737, 1738, 1739, 1740, 1741, 1742, 1743, 1744, 1745, 1746, 1747, 1748, 1749, 1750, 1751, 1752
1753, 1754, 1755, 1756, 1757, 1758, 1759, 1760, 1761, 1762, 1763, 1764
*NSET, NSET=WARP_SEGMENT_3
1765, 1766, 1767, 1768, 1769, 1770, 1771, 1772, 1773, 1774, 1775, 1776, 1777, 1778, 1779, 1780
1781, 1782, 1783, 1784, 1785, 1786, 1787, 1788, 1789, 1790, 1791, 1792, 1793, 1794, 1795, 1796
1797, 1798, 1799, 1800, 1801, 1802, 1803, 1804, 1805, 1806, 1807, 1808, 1809, 1810, 1811, 1812
1813, 1814, 1815, 1816, 1817, 1818, 1819, 1820, 1821, 1822, 1823, 1824, 1825, 1826, 1827, 1828
1829, 1830, 1831, 1832, 1833, 1834, 1835, 1836, 1837, 1838, 1839, 1840, 1841, 1842, 1843, 1844
1845, 1846, 1847, 1848, 1849, 1850, 1851, 1852, 1853, 1854, 1855, 1856, 1857, 1858, 1859, 1860
1861, 1862, 1863, 1864, 1865, 1866, 1867, 1868, 1869, 1870, 1871, 1872, 1873, 1874, 1875, 1876
1877, 1878, 1879, 1880, 1881, 1882, 1883, 1884, 1885, 1886, 1887, 1888, 1889, 1890, 1891, 1892
1893, 1894, 1895, 1896, 1897, 1898, 1899, 1900, 1901, 1902, 1903, 1904, 1905, 1906, 1907, 1908
1909, 1910, 1911, 1912, 1913, 1914, 1915, 1916, 1917, 1918, 1919, 1920, 1921, 1922, 1923, 1924
1925, 1926, 1927, 1928, 1929, 1930, 1931, 1932, 1933, 1934, 1935, 1936, 1937, 1938, 1939, 1940
1941, 1942, 1943, 1944, 1945, 1946, 1947, 1948, 1949, 1950, 1951, 1952, 1953, 1954, 1955, 1956
1957, 1958, 1959, 1960, 1961, 1962, 1963, 1964, 1965, 1966, 1967, 1968, 1969, 1970, 1971, 1972
1973, 1974, 1975, 1976, 1977, 1978, 1979, 1980, 1981, 1982, 1983, 1984, 1985, 1986, 1987, 1988
1989, 1990, 1991, 1992, 1993, 1994, 1995, 1996, 1997, 1998, 1999, 2000, 2001, 2002, 2003, 2004
2005, 2006, 2007, 2008, 2009, 2010, 2011, 2012, 2013, 2014, 2015, 2016, 2017, 2018, 2019, 2020
2021, 2022, 2023, 2024, 2025, 2026, 2027, 2028, 2029, 2030, 2031, 2032, 2033, 2034, 2035, 2036
2037, 2038, 2039, 2040, 2041, 2042, 2043, 2044, 2045, 2046, 2047, 2048, 2049, 2050, 2051, 2052
2053, 2054, 2055, 2056, 2057, 2058, 2059, 2060, 2061, 2062, 2063, 2064, 2065, 2066, 2067, 2068
2069, 2070, 2071, 2072, 2073, 2074, 2075, 2076, 2077, 2078, 2079, 2080, 2081, 2082, 2083, 2084
2085, 2086, 2087, 2088, 2089, 2090, 2091, 2092, 2093, 2094, 2095, 2096, 2097, 2098, 2099, 2100
2101, 2102, 2103, 2104, 2105, 2106, 2107, 2108, 2109, 2110, 2111, 2112, 2113, 2114, 2115, 2116
2117, 2118, 2119, 2120, 2121, 2122, 2123, 2124, 2125, 2126, 2127, 2128, 2129, 2130, 2131, 2132
2133, 2134, 2135, 2136, 2137, 2138, 2139, 2140, 2141, 2142, 2143, 2144, 2145, 2146, 2147, 2148
2149, 2150, 2151, 2152, 2153, 2154, 2155, 2156, 2157, 2158, 2159, 2160, 2161, 2162, 2163, 2164
2165, 2166, 2167, 2168, 2169, 2170, 2171, 2172, 2173, 2174, 2175, 2176, 2177, 2178, 2179, 2180
2181, 2182, 2183, 2184, 2185, 2186, 2187, 2188, 2189, 2190, 2191, 2192, 2193, 2194, 2195, 2196
2197, 2198, 2199, 2200, 2201, 2202, 2203, 2204, 2205, 2206, 2207, 2208, 2209, 2210, 2211, 2212
2213, 2214, 2215, 2216, 2217, 2218, 2219, 2220, 2221, 2222, 2223, 2224, 2225, 2226, 2227, 2228
2229, 2230, 2231, 2232, 2233, 2234, 2235, 2236, 2237, 2238, 2239, 2240, 2241, 2242, 2243, 2244
2245, 2246, 2247, 2248, 2249, 2250, 2251, 2252, 2253, 2254, 2255, 2256, 2257, 2258, 2259, 2260
2261, 2262, 2263, 2264, 2265, 2266, 2267, 2268, 2269, 2270, 2271, 2272, 2273, 2274, 2275, 2276
2277, 2278, 2279, 2280, 2281, 2282, 2283, 2284, 2285, 2286, 2287, 2288, 2289, 2290, 2291, 2292
2293, 2294, 2295, 2296, 2297, 2298, 2299, 2300, 2301, 2302, 2303, 2304, 2305, 2306, 2307, 2308
2309, 2310, 2311, 2312, 2313, 2314, 2315, 2316, 2317, 2318, 2319, 2320, 2321, 2322, 2323, 2324
2325, 2326, 2327, 2328, 2329, 2330, 2331, 2332, 2333, 2334, 2335, 2336, 2337, 2338, 2339, 2340
2341, 2342, 2343, 2344, 2345, 2346, 2347, 2348, 2349, 2350, 2351, 2352
*NSET, NSET=WEFT_SEGMENT_4
2353, 2354, 2355, 2356, 2357, 2358, 2359, 2360, 2361, 2362, 2363, 2364, 2365, 2366, 2367, 2368
2369, 2370, 2371, 2372, 2373, 2374, 2375, 2376, 2377, 2378, 2379, 2380, 2381, 2382, 2383, 2384
2385, 2386, 2387, 2388, 2389, 2390, 2391, 2392, 2393, 2394, 2395, 2396, 2397, 2398, 2399, 2400
2401, 2402, 2403, 2404, 2405, 2406, 2407, 2408, 2409, 2410, 2411, 2412, 2413, 2414, 2415, 2416
2417, 2418, 2419, 2420, 2421, 2422, 2423, 2424, 2425, 2426, 2427, 2428, 2429, 2430, 2431, 2432
2433, 2434, 2435, 2436, 2437, 2438, 2439, 2440, 2441, 2442, 2443, 2444, 2445, 2446, 2447, 2448
2449, 2450, 2451, 2452, 2453, 2454, 2455, 2456, 2457, 2458, 2459, 2460, 2461, 2462, 2463, 2464
2465, 2466, 2467, 2468, 2469, 2470, 2471, 2472, 2473, 2474, 2475, 2476, 2477, 2478, 2479, 2480
2481, 2482, 2483, 2484, 2485, 2486, 2487, 2488, 2489, 2490, 2491, 2492, 2493, 2494, 2495, 2496
2497, 2498, 2499, 2500, 2501, 2502, 2503, 2504, 2505, 2506, 2507, 2508, 2509, 2510, 2511, 2512
2513, 2514, 2515, 2516, 2517, 2518, 2519, 2520, 2521, 2522, 2523, 2524, 2525, 2526, 2527, 2528
2529, 2530, 2531, 2532, 2533, 2534, 2535, 2536, 2537, 2538, 2539, 2540, 2541, 2542, 2543, 2544
2545, 2546, 2547, 2548, 2549, 2550, 2551, 2552, 2553, 2554, 2555, 2556, 2557, 2558, 2559, 2560
2561, 2562, 2563, 2564, 2565, 2566, 2567, 2568, 2569, 2570, 2571, 2572, 2573, 2574, 2575, 2576
2577, 2578, 2579, 2580, 2581, 2582, 2583, 2584, 2585, 2586, 2587, 2588, 2589, 2590, 2591, 2592
2593, 2594, 2595, 2596, 2597, 2598, 2599, 2600, 2601, 2602, 2603, 2604, 2605, 2606, 2607, 2608
2609, 2610, 2611, 2612, 2613, 2614, 2615, 2616, 2617, 2618, 2619, 2620, 2621, 2622, 2623, 2624
2625, 2626, 2627, 2628, 2629, 2630, 2631, 2632, 2633, 2634, 2635, 2636, 2637, 2638, 2639, 2640
2641, 2642, 2643, 2644, 2645, 2646, 2647, 2648, 2649, 2650, 2651, 2652, 2653, 2654, 2655, 2656
2657, 2658, 2659, 2660, 2661, 2662, 2663, 2664, 2665, 2666, 2667, 2668, 2669, 2670, 2671, 2672
2673, 2674, 2675, 2676, 2677, 2678, 2679, 2680, 2681, 2682, 2683, 2684, 2685, 2686, 2687, 2688
2689, 2690, 2691, 2692, 2693, 2694, 2695, 2696, 2697, 2698, 2699, 2700, 2701, 2702, 2703, 2704
2705, 2706, 2707, 2708, 2709, 2710, 2711, 2712, 2713, 2714, 2715, 2716, 2717, 2718, 2719, 2720
2721, 2722, 2723, 2724, 2725, 2726, 2727, 2728, 2729, 2730, 2731, 2732, 2733, 2734, 2735, 2736
2737, 2738, 2739, 2740, 2741, 2742, 2743, 2744, 2745, 2746, 2747, 2748, 2749, 2750, 2751, 2752
2753, 2754, 2755, 2756, 2757, 2758, 2759, 2760, 2761, 2762, 2763, 2764, 2765, 2766, 2767, 2768
2769, 2770, 2771, 2772, 2773, 2774, 2775, 2776, 2777, 2778, 2779, 2780, 2781, 2782, 2783, 2784
2785, 2786, 2787, 2788, 2789, 2790, 2791, 2792, 2793, 2794, 2795, 2796, 2797, 2798, 2799, 2800
2801, 2802, 2803, 2804, 2805, 2806, 2807, 2808, 2809, 2810, 2811, 2812, 2813, 2814, 2815, 2816
2817, 2818, 2819, 2820, 2821, 2822, 2823, 2824, 2825, 2826, 2827, 2828, 2829, 2830, 2831, 2832
2833, 2834, 2835, 2836, 2837, 2838, 2839, 2840, 2841, 2842, 2843, 2844, 2845, 2846, 2847, 2848
2849, 2850, 2851, 2852, 2853, 2854, 2855, 2856, 2857, 2858, 2859, 2860, 2861, 2862, 2863, 2864
2865, 2866, 2867, 2868, 2869, 2870, 2871, 2872, 2873, 2874, 2875, 2876, 2877, 2878, 2879, 2880
2881, 2882, 2883, 2884, 2885, 2886, 2887, 2888, 2889, 2890, 2891, 2892, 2893, 2894, 2895, 2896
2897, 2898, 2899, 2900, 2901, 2902, 2903, 2904, 2905, 2906, 2907, 2908, 2909, 2910, 2911, 2912
2913, 2914, 2915, 2916, 2917, 2918, 2919, 2920, 2921, 2922, 2923, 2924, 2925, 2926, 2927, 2928
2929, 2930, 2931, 2932, 2933, 2934, 2935, 2936, 2937, 2938, 2939, 2940
*NSET, NSET=WEFT_SEGMENT_5
2941, 2942, 2943, 2944, 2945, 2946, 2947, 2948, 2949, 2950, 2951, 2952, 2953, 2954, 2955, 2956
2957, 2958, 2959, 2960, 2961, 2962, 2963, 2964, 2965, 2966, 2967, 2968, 2969, 2970, 2971, 2972
2973, 2974, 2975, 2976, 2977, 2978, 2979, 2980, 2981, 2982, 2983, 2984, 2985, 2986, 2987, 2988
2989, 2990, 2991, 2992, 2993, 2994, 2995, 2996, 2997, 2998, 2999, 3000, 3001, 3002, 3003, 3004
3005, 3006, 3007, 3008, 3009, 3010, 3011, 3012, 3013, 3014, 3015, 3016, 3017, 3018, 3019, 3020
3021, 3022, 3023, 3024, 3025, 3026, 3027, 3028, 3029, 3030, 3031, 3032, 3033, 3034, 3035, 3036
3037, 3038, 3039, 3040, 3041, 3042, 3043, 3044, 3045, 3046, 3047, 3048, 3049, 3050, 3051, 3052
3053, 3054, 3055, 3056, 3057, 3058, 3059, 3060, 3061, 3062, 3063, 3064, 3065, 3066, 3067, 3068
3069, 3070, 3071, 3072, 3073, 3074, 3075, 3076, 3077, 3078, 3079, 3080, 3081, 3082, 3083, 3084
3085, 3086, 3087, 3088, 3089, 3090, 3091, 3092, 3093, 3094, 3095, 3096, 3097, 3098, 3099, 3100
3101, 3102, 3103, 3104, 3105, 3106, 3107, 3108, 3109, 3110, 3111, 3112, 3113, 3114, 3115, 3116
3117, 3118, 3119, 3120, 3121, 3122, 3123, 3124, 3125, 3126, 3127, 3128, 3129, 3130, 3131, 3132
3133, 3134, 3135, 3136, 3137, 3138, 3139, 3140, 3141, 3142, 3143, 3144, 3145, 3146, 3147, 3148
3149, 3150, 3151, 3152, 3153, 3154, 3155, 3156, 3157, 3158, 3159, 3160, 3161, 3162, 3163, 3164
3165, 3166, 3167, 3168, 3169, 3170, 3171, 3172, 3173, 3174, 3175, 3176, 3177, 3178, 3179, 3180
3181, 3182, 3183, 3184, 3185, 3186, 3187, 3188, 3189, 3190, 3191, 3192, 3193, 3194, 3195, 3196
3197, 3198, 3199, 3200, 3201, 3202, 3203, 3204, 3205, 3206, 3207, 3208, 3209, 3210, 3211, 3212
3213, 3214, 3215, 3216, 3217, 3218, 3219, 3220, 3221, 3222, 3223, 3224, 3225, 3226, 3227, 3228
3229, 3230, 3231, 3232, 3233, 3234, 3235, 3236, 3237, 3238, 3239, 3240, 3241, 3242, 3243, 3244
3245, 3246, 3247, 3248, 3249, 3250, 3251, 3252, 3253, 3254, 3255, 3256, 3257, 3258, 3259, 3260
3261, 3262, 3263, 3264, 3265, 3266, 3267, 3268, 3269, 3270, 3271, 3272, 3273, 3274, 3275, 3276
3277, 3278, 3279, 3280, 3281, 3282, 3283, 3284, 3285, 3286, 3287, 3288, 3289, 3290, 3291, 3292
3293, 3294, 3295, 3296, 3297, 3298, 3299, 3300, 3301, 3302, 3303, 3304, 3305, 3306, 3307, 3308
3309, 3310, 3311, 3312, 3313, 3314, 3315, 3316, 3317, 3318, 3319, 3320, 3321, 3322, 3323, 3324
3325, 3326, 3327, 3328, 3329, 3330, 3331, 3332, 3333, 3334, 3335, 3336, 3337, 3338, 3339, 3340
3341, 3342, 3343, 3344, 3345, 3346, 3347, 3348, 3349, 3350, 3351, 3352, 3353, 3354, 3355, 3356
3357, 3358, 3359, 3360, 3361, 3362, 3363, 3364, 3365, 3366, 3367, 3368, 3369, 3370, 3371, 3372
3373, 3374, 3375, 3376, 3377, 3378, 3379, 3380, 3381, 3382, 3383, 3384, 3385, 3386, 3387, 3388
3389, 3390, 3391, 3392, 3393, 3394, 3395, 3396, 3397, 3398, 3399, 3400, 3401, 3402, 3403, 3404
3405, 3406, 3407, 3408, 3409, 3410, 3411, 3412, 3413, 3414, 3415, 3416, 3417, 3418, 3419, 3420
3421, 3422, 3423, 3424, 3425, 3426, 3427, 3428, 3429, 3430, 3431, 3432, 3433, 3434, 3435, 3436
3437, 3438, 3439, 3440, 3441, 3442, 3443, 3444, 3445, 3446, 3447, 3448, 3449, 3450, 3451, 3452
3453, 3454, 3455, 3456, 3457, 3458, 3459, 3460, 3461, 3462, 3463, 3464, 3465, 3466, 3467, 3468
3469, 3470, 3471, 3472, 3473, 3474, 3475, 3476, 3477, 3478, 3479, 3480, 3481, 3482, 3483, 3484
3485, 3486, 3487, 3488, 3489, 3490, 3491, 3492, 3493, 3494, 3495, 3496, 3497, 3498, 3499, 3500
3501, 3502, 3503, 3504, 3505, 3506, 3507, 3508, 3509, 3510, 3511, 3512, 3513, 3514, 3515, 3516
3517, 3518, 3519, 3520, 3521, 3522, 3523, 3524, 3525, 3526, 3527, 3528
*NSET, NSET=WEFT_SEGMENT_6
3529, 3530, 3531, 3532, 3533, 3534, 3535, 3536, 3537, 3538, 3539, 3540, 3541, 3542, 3543, 3544
3545, 3546, 3547, 3548, 3549, 3550, 3551, 3552, 3553, 3554, 3555, 3556, 3557, 3558, 3559, 3560
3561, 3562, 3563, 3564, 3565, 3566, 3567, 3568, 3569, 3570, 3571, 3572, 3573, 3574, 3575, 3576
3577, 3578, 3579, 3580, 3581, 3582, 3583, 3584, 3585, 3586, 3587, 3588, 3589, 3590, 3591, 3592
3593, 3594, 3595, 3596, 3597, 3598, 3599, 3600, 3601, 3602, 3603, 3604, 3605, 3606, 3607, 3608
3609, 3610, 3611, 3612, 3613, 3614, 3615, 3616, 3617, 3618, 3619, 3620, 3621, 3622, 3623, 3624
3625, 3626, 3627, 3628, 3629, 3630, 3631, 3632, 3633, 3634, 3635, 3636, 3637, 3638, 3639, 3640
3641, 3642, 3643, 3644, 3645, 3646, 3647, 3648, 3649, 3650, 3651, 3652, 3653, 3654, 3655, 3656
3657, 3658, 3659, 3660, 3661, 3662, 3663, 3664, 3665, 3666, 3667, 3668, 3669, 3670, 3671, 3672
3673, 3674, 3675, 3676, 3677, 3678, 3679, 3680, 3681, 3682, 3683, 3684, 3685, 3686, 3687, 3688
3689, 3690, 3691, 3692, 3693, 3694, 3695, 3696, 3697, 3698, 3699, 3700, 3701, 3702, 3703, 3704
3705, 3706, 3707, 3708, 3709, 3710, 3711, 3712, 3713, 3714, 3715, 3716, 3717, 3718, 3719, 3720
3721, 3722, 3723, 3724, 3725, 3726, 3727, 3728, 3729, 3730, 3731, 3732, 3733, 3734, 3735, 3736
3737, 3738, 3739, 3740, 3741, 3742, 3743, 3744, 3745, 3746, 3747, 3748, 3749, 3750, 3751, 3752
3753, 3754, 3755, 3756, 3757, 3758, 3759, 3760, 3761, 3762, 3763, 3764, 3765, 3766, 3767, 3768
3769, 3770, 3771, 3772, 3773, 3774, 3775, 3776, 3777, 3778, 3779, 3780, 3781, 3782, 3783, 3784
3785, 3786, 3787, 3788, 3789, 3790, 3791, 3792, 3793, 3794, 3795, 3796, 3797, 3798, 3799, 3800
3801, 3802, 3803, 3804, 3805, 3806, 3807, 3808, 3809, 3810, 3811, 3812, 3813, 3814, 3815, 3816
3817, 3818, 3819, 3820, 3821, 3822, 3823, 3824, 3825, 3826, 3827, 3828, 3829, 3830, 3831, 3832
3833, 3834, 3835, 3836, 3837, 3838, 3839, 3840, 3841, 3842, 3843, 3844, 3845, 3846, 3847, 3848
3849, 3850, 3851, 3852, 3853, 3854, 3855, 3856, 3857, 3858, 3859, 3860, 3861, 3862, 3863, 3864
3865, 3866, 3867, 3868, 3869, 3870, 3871, 3872, 3873, 3874, 3875, 3876, 3877, 3878, 3879, 3880
3881, 3882, 3883, 3884, 3885, 3886, 3887, 3888, 3889, 3890, 3891, 3892, 3893, 3894, 3895, 3896
3897, 3898, 3899, 3900, 3901, 3902, 3903, 3904, 3905, 3906, 3907, 3908, 3909, 3910, 3911, 3912
3913, 3914, 3915, 3916, 3917, 3918, 3919, 3920, 3921, 3922, 3923, 3924, 3925, 3926, 3927, 3928
3929, 3930, 3931, 3932, 3933, 3934, 3935, 3936, 3937, 3938, 3939, 3940, 3941, 3942, 3943, 3944
3945, 3946, 3947, 3948, 3949, 3950, 3951, 3952, 3953, 3954, 3955, 3956, 3957, 3958, 3959, 3960
3961, 3962, 3963, 3964, 3965, 3966, 3967, 3968, 3969, 3970, 3971, 3972, 3973, 3974, 3975, 3976
3977, 3978, 3979, 3980, 3981, 3982, 3983, 3984, 3985, 3986, 3987, 3988, 3989, 3990, 3991, 3992
3993, 3994, 3995, 3996, 3997, 3998, 3999, 4000, 4001, 4002, 4003, 4004, 4005, 4006, 4007, 4008
4009, 4010, 4011, 4012, 4013, 4014, 4015, 4016, 4017, 4018, 4019, 4020, 4021, 4022, 4023, 4024
4025, 4026, 4027, 4028, 4029, 4030, 4031, 4032, 4033, 4034, 4035, 4036, 4037, 4038, 4039, 4040
4041, 4042, 4043, 4044, 4045, 4046, 4047, 4048, 4049, 4050, 4051, 4052, 4053, 4054, 4055, 4056
4057, 4058, 4059, 4060, 4061, 4062, 4063, 4064, 4065, 4066, 4067, 4068, 4069, 4070, 4071, 4072
4073, 4074, 4075, 4076, 4077, 4078, 4079, 4080, 4081, 4082, 4083, 4084, 4085, 4086, 4087, 4088
4089, 4090, 4091, 4092, 4093, 4094, 4095, 4096, 4097, 4098, 4099, 4100, 4101, 4102, 4103, 4104
4105, 4106, 4107, 4108, 4109, 4110, 4111, 4112, 4113, 4114, 4115, 4116
*NSET, NSET=WEFT_SEGMENT_7
4117, 4118, 4119, 4120, 4121, 4122, 4123, 4124, 4125, 4126, 4127, 4128, 4129, 4130, 4131, 4132
4133, 4134, 4135, 4136, 4137, 4138, 4139, 4140, 4141, 4142, 4143, 4144, 4145, 4146, 4147, 4148
4149, 4150, 4151, 4152, 4153, 4154, 4155, 4156, 4157, 4158, 4159, 4160, 4161, 4162, 4163, 4164
4165, 4166, 4167, 4168, 4169, 4170, 4171, 4172, 4173, 4174, 4175, 4176, 4177, 4178, 4179, 4180
4181, 4182, 4183, 4184, 4185, 4186, 4187, 4188, 4189, 4190, 4191, 4192, 4193, 4194, 4195, 4196
4197, 4198, 4199, 4200, 4201, 4202, 4203, 4204, 4205, 4206, 4207, 4208, 4209, 4210, 4211, 4212
4213, 4214, 4215, 4216, 4217, 4218, 4219, 4220, 4221, 4222, 4223, 4224, 4225, 4226, 4227, 4228
4229, 4230, 4231, 4232, 4233, 4234, 4235, 4236, 4237, 4238, 4239, 4240, 4241, 4242, 4243, 4244
4245, 4246, 4247, 4248, 4249, 4250, 4251, 4252, 4253, 4254, 4255, 4256, 4257, 4258, 4259, 4260
4261, 4262, 4263, 4264, 4265, 4266, 4267, 4268, 4269, 4270, 4271, 4272, 4273, 4274, 4275, 4276
4277, 4278, 4279, 4280, 4281, 4282, 4283, 4284, 4285, 4286, 4287, 4288, 4289, 4290, 4291, 4292
4293, 4294, 4295, 4296, 4297, 4298, 4299, 4300, 4301, 4302, 4303, 4304, 4305, 4306, 4307, 4308
4309, 4310, 4311, 4312, 4313, 4314, 4315, 4316, 4317, 4318, 4319, 4320, 4321, 4322, 4323, 4324
4325, 4326, 4327, 4328, 4329, 4330, 4331, 4332, 4333, 4334, 4335, 4336, 4337, 4338, 4339, 4340
4341, 4342, 4343, 4344, 4345, 4346, 4347, 4348, 4349, 4350, 4351, 4352, 4353, 4354, 4355, 4356
4357, 4358, 4359, 4360, 4361, 4362, 4363, 4364, 4365, 4366, 4367, 4368, 4369, 4370, 4371, 4372
4373, 4374, 4375, 4376, 4377, 4378, 4379, 4380, 4381, 4382, 4383, 4384, 4385, 4386, 4387, 4388
4389, 4390, 4391, 4392, 4393, 4394, 4395, 4396, 4397, 4398, 4399, 4400, 4401, 4402, 4403, 4404
4405, 4406, 4407, 4408, 4409, 4410, 4411, 4412, 4413, 4414, 4415, 4416, 4417, 4418, 4419, 4420
4421, 4422, 4423, 4424, 4425, 4426, 4427, 4428, 4429, 4430, 4431, 4432, 4433, 4434, 4435, 4436
4437, 4438, 4439, 4440, 4441, 4442, 4443, 4444, 4445, 4446, 4447, 4448, 4449, 4450, 4451, 4452
4453, 4454, 4455, 4456, 4457, 4458, 4459, 4460, 4461, 4462, 4463, 4464, 4465, 4466, 4467, 4468
4469, 4470, 4471, 4472, 4473, 4474, 4475, 4476, 4477, 4478, 4479, 4480, 4481, 4482, 4483, 4484
4485, 4486, 4487, 4488, 4489, 4490, 4491, 4492, 4493, 4494, 4495, 4496, 4497, 4498, 4499, 4500
4501, 4502, 4503, 4504, 4505, 4506, 4507, 4508, 4509, 4510, 4511, 4512, 4513, 4514, 4515, 4516
4517, 4518, 4519, 4520, 4521, 4522, 4523, 4524, 4525, 4526, 4527, 4528, 4529, 4530, 4531, 4532
4533, 4534, 4535, 4536, 4537, 4538, 4539, 4540, 4541, 4542, 4543, 4544, 4545, 4546, 4547, 4548
4549, 4550, 4551, 4552, 4553, 4554, 4555, 4556, 4557, 4558, 4559, 4560, 4561, 4562, 4563, 4564
4565, 4566, 4567, 4568, 4569, 4570, 4571, 4572, 4573, 4574, 4575, 4576, 4577, 4578, 4579, 4580
4581, 4582, 4583, 4584, 4585, 4586, 4587, 4588, 4589, 4590, 4591, 4592, 4593, 4594, 4595, 4596
4597, 4598, 4599, 4600, 4601, 4602, 4603, 4604, 4605, 4606, 4607, 4608, 4609, 4610, 4611, 4612
4613, 4614, 4615, 4616, 4617, 4618, 4619, 4620, 4621, 4622, 4623, 4624, 4625, 4626, 4627, 4628
4629, 4630, 4631, 4632, 4633, 4634, 4635, 4636, 4637, 4638, 4639, 4640, 4641, 4642, 4643, 4644
4645, 4646, 4647, 4648, 4649, 4650, 4651, 4652, 4653, 4654, 4655, 4656, 4657, 4658, 4659, 4660
4661, 4662, 4663, 4664, 4665, 4666, 4667, 4668, 4669, 4670, 4671, 4672, 4673, 4674, 4675, 4676
4677, 4678, 4679, 4680, 4681, 4682, 4683, 4684, 4685, 4686, 4687, 4688, 4689, 4690, 4691, 4692
4693, 4694, 4695, 4696, 4697, 4698, 4699, 4700, 4701, 4702, 4703, 4704
*ELEMENT, TYPE=C3D8R
1, 9, 2, 1, 8, 30, 23, 22, 29
2, 16, 9, 8, 15, 37, 30, 29, 36
3, 10, 3, 2, 9, 31, 24, 23, 30
4, 17, 10, 9, 16, 38, 31, 30, 37
5, 11, 4, 3, 10, 32, 25, 24, 31
6, 18, 11, 10, 17, 39, 32, 31, 38
7, 12, 5, 4, 11, 33, 26, 25, 32
8, 19, 12, 11, 18, 40, 33, 32, 39
9, 13, 6, 5, 12, 34, 27, 26, 33
10, 20, 13, 12, 19, 41, 34, 33, 40
11, 14, 7, 6, 13, 35, 28, 27, 34
12, 21, 14, 13, 20, 42, 35, 34, 41
13, 30, 23, 22, 29, 51, 44, 43, 50
14, 37, 30, 29, 36, 58, 51, 50, 57
15, 31, 24, 23, 30, 52, 45, 44, 51
16, 38, 31, 30, 37, 59, 52, 51, 58
17, 32, 25, 24, 31, 53, 46, 45, 52
18, 39, 32, 31, 38, 60, 53, 52, 59
19, 33, 26, 25, 32, 54, 47, 46, 53
20, 40, 33, 32, 39, 61, 54, 53, 60
21, 34, 27, 26, 33, 55, 48, 47, 54
22, 41, 34, 33, 40, 62, 55, 54, 61
23, 35, 28, 27, 34, 56, 49, 48, 55
24, 42, 35, 34, 41, 63, 56, 55, 62
25, 51, 44, 43, 50, 72, 65, 64, 71
26, 58, 51, 50, 57, 79, 72, 71, 78
27, 52, 45, 44, 51, 73, 66, 65, 72
28, 59, 52, 51, 58, 80, 73, 72, 79
29, 53, 46, 45, 52, 74, 67, 66, 73
30, 60, 53, 52, 59, 81, 74, 73, 80
31, 54, 47, 46, 53, 75, 68, 67, 74
32, 61, 54, 53, 60, 82, 75, 74, 81
33, 55, 48, 47, 54, 76, 69, 68, 75
34, 62, 55, 54, 61, 83, 76, 75, 82
35, 56, 49, 48, 55, 77, 70, 69, 76
36, 63, 56, 55, 62, 84, 77, 76, 83
37, 72, 65, 64, 71, 93, 86, 85, 92
38, 79, 72, 71, 78, 100, 93, 92, 99
39, 73, 66, 65, 72, 94, 87, 86, 93
40, 80, 73, 72, 79, 101, 94, 93, 100
41, 74, 67, 66, 73, 95, 88, 87, 94
42, 81, 74, 73, 80, 102, 95, 94, 101
43, 75, 68, 67, 74, 96, 89, 88, 95
44, 82, 75, 74, 81, 103, 96, 95, 102
45, 76, 69, 68, 75, 97, 90, 89, 96
46, 83, 76, 75, 82, 104, 97, 96, 103
47, 77, 70, 69, 76, 98, 91, 90, 97
48, 84, 77, 76, 83, 105, 98, 97, 104
49, 93, 86, 85, 92, 114, 107, 106, 113
50, 100, 93, 92, 99, 121, 114, 113, 120
51, 94, 87, 86, 93, 115, 108, 107, 114
52, 101, 94, 93, 100, 122, 115, 114, 121
53, 95, 88, 87, 94, 116, 109, 108, 115
54, 102, 95, 94, 101, 123, 116, 115, 122
55, 96, 89, 88, 95, 117, 110, 109, 116
56, 103, 96, 95, 102, 124, 117, 116, 123
57, 97, 90, 89, 96, 118, 111, 110, 117
58, 104, 97, 96, 103, 125, 118, 117, 124
59, 98, 91, 90, 97, 119, 112, 111, 118
60, 105, 98, 97, 104, 126, 119, 118, 125
61, 114, 107, 106, 113, 135, 128, 127, 134
62, 121, 114, 113, 120, 142, 135, 134, 141
63, 115, 108, 107, 114, 136, 129, 128, 135
64, 122, 115, 114, 121, 143, 136, 135, 142
65, 116, 109, 108, 115, 137, 130, 129, 136
66, 123, 116, 115, 122, 144, 137, 136, 143
67, 117, 110, 109, 116, 138, 131, 130, 137
68, 124, 117, 116, 123, 145, 138, 137, 144
69, 118, 111, 110, 117, 139, 132, 131, 138
70, 125, 118, 117, 124, 146, 139, 138, 145
71, 119, 112, 111, 118, 140, 133, 132, 139
72, 126, 119, 118, 125, 147, 140, 139, 146
73, 135, 128, 127, 134, 156, 149, 148, 155
74, 142, 135, 134, 141, 163, 156, 155, 162
75, 136, 129, 128, 135, 157, 150, 149, 156
76, 143, 136, 135, 142, 164, 157, 156, 163
77, 137, 130, 129, 136, 158, 151, 150, 157
78, 144, 137, 136, 143, 165, 158, 157, 164
79, 138, 131, 130, 137, 159, 152, 151, 158
80, 145, 138, 137, 144, 166, 159, 158, 165
81, 139, 132, 131, 138, 160, 153, 152, 159
82, 146, 139, 138, 145, 167, 160, 159, 166
83, 140, 133, 132, 139, 161, 154, 153, 160
84, 147, 140, 139, 146, 168, 161, 160, 167
85, 156, 149, 148, 155, 177, 170, 169, 176
86, 163, 156, 155, 162, 184, 177, 176, 183
87, 157, 150, 149, 156, 178, 171, 170, 177
88, 164, 157, 156, 163, 185, 178, 177, 184
89, 158, 151, 150, 157, 179, 172, 171, 178
90, 165, 158, 157, 164, 186, 179, 178, 185
91, 159, 152, 151, 158, 180, 173, 172, 179
92, 166, 159, 158, 165, 187, 180, 179, 186
93, 160, 153, 152, 159, 181, 174, 173, 180
94, 167, 160, 159, 166, 188, 181, 180, 187
95, 161, 154, 153, 160, 182, 175, 174, 181
96, 168, 161, 160, 167, 189, 182, 181, 188
97, 177, 170, 169, 176, 198, 191, 190, 197
98, 184, 177, 176, 183, 205, 198, 197, 204
99, 178, 171, 170, 177, 199, 192, 191, 198
100, 185, 178, 177, 184, 206, 199, 198, 205
101, 179, 172, 171, 178, 200, 193, 192, 199
102, 186, 179, 178, 185, 207, 200, 199, 206
103, 180, 173, 172, 179, 201, 194, 193, 200
104, 187, 180, 179, 186, 208, 201, 200, 207
105, 181, 174, 173, 180, 202, 195, 194, 201
106, 188, 181, 180, 187, 209, 202, 201, 208
107, 182, 175, 174, 181, 203, 196, 195, 202
108, 189, 182, 181, 188, 210, 203, 202, 209
109, 198, 191, 190, 197, 219, 212, 211, 218
110, 205, 198, 197, 204, 226, 219, 218, 225
111, 199, 192, 191, 198, 220, 213, 212, 219
112, 206, 199, 198, 205, 227, 220, 219, 226
113, 200, 193, 192, 199, 221, 214, 213, 220
114, 207, 200, 199, 206, 228, 221, 220, 227
115, 201, 194, 193, 200, 222, 215, 214, 221
116, 208, 201, 200, 207, 229, 222, 221, 228
117, 202, 195, 194, 201, 223, 216, 215, 222
118, 209, 202, 201, 208, 230, 223, 222, 229
119, 203, 196, 195, 202, 224, 217, 216, 223
120, 210, 203, 202, 209, 231, 224, 223, 230
121, 219, 212, 211, 218, 240, 233, 232, 239
122, 226, 219, 218, 225, 247, 240, 239, 246
123, 220, 213, 212, 219, 241, 234, 233, 240
124, 227, 220, 219, 226, 248, 241, 240, 247
125, 221, 214, 213, 220, 242, 235, 234, 241
126, 228, 221, 220, 227, 249, 242, 241, 248
127, 222, 215, 214, 221, 243, 236, 235, 242
128, 229, 222, 221, 228, 250, 243, 242, 249
129, 223, 216, 215, 222, 244, 237, 236, 243
130, 230, 223, 222, 229, 251, 244, 243, 250
131, 224, 217, 216, 223, 245, 238, 237, 244
132, 231, 224, 223, 230, 252, 245, 244, 251
133, 240, 233, 232, 239, 261, 254, 253, 260
134, 247, 240, 239, 246, 268, 261, 260, 267
135, 241, 234, 233, 240, 262, 255, 254, 261
136, 248, 241, 240, 247, 269, 262, 261, 268
137, 242, 235, 234, 241, 263, 256, 255, 262
138, 249, 242, 241, 248, 270, 263, 262, 269
139, 243, 236, 235, 242, 264, 257, 256, 263
140, 250, 243, 242, 249, 271, 264, 263, 270
141, 244, 237, 236, 243, 265, 258, 257, 264
142, 251, 244, 243, 250, 272, 265, 264, 271
143, 245, 238, 237, 244, 266, 259, 258, 265
144, 252, 245, 244, 251, 273, 266, 265, 272
145, 261, 254, 253, 260, 282, 275, 274, 281
146, 268, 261, 260, 267, 289, 282, 281, 288
147, 262, 255, 254, 261, 283, 276, 275, 282
148, 269, 262, 261, 268, 290, 283, 282, 289
149, 263, 256, 255, 262, 284, 277, 276, 283
150, 270, 263, 262, 269, 291, 284, 283, 290
151, 264, 257, 256, 263, 285, 278, 277, 284
152, 271, 264, 263, 270, 292, 285, 284, 291
153, 265, 258, 257, 264, 286, 279, 278, 285
154, 272, 265, 264, 271, 293, 286, 285, 292
155, 266, 259, 258, 265, 287, 280, 279, 286
156, 273, 266, 265, 272, 294, 287, 286, 293
157, 282, 275, 274, 281, 303, 296, 295, 302
158, 289, 282, 281, 288, 310, 303, 302, 309
159, 283, 276, 275, 282, 304, 297, 296, 303
160, 290, 283, 282, 289, 311, 304, 303, 310
161, 284, 277, 276, 283, 305, 298, 297, 304
162, 291, 284, 283, 290, 312, 305, 304, 311
163, 285, 278, 277, 284, 306, 299, 298, 305
164, 292, 285, 284, 291, 313, 306, 305, 312
165, 286, 279, 278, 285, 307, 300, 299, 306
166, 293, 286, 285, 292, 314, 307, 306, 313
167, 287, 280, 279, 286, 308, 301, 300, 307
168, 294, 287, 286, 293, 315, 308, 307, 314
169, 303, 296, 295, 302, 324, 317, 316, 323
170, 310, 303, 302, 309, 331, 324, 323, 330
171, 304, 297, 296, 303, 325, 318, 317, 324
172, 311, 304, 303, 310, 332, 325, 324, 331
173, 305, 298, 297, 304, 326, 319, 318, 325
174, 312, 305, 304, 311, 333, 326, 325, 332
175, 306, 299, 298, 305, 327, 320, 319, 326
176, 313, 306, 305, 312, 334, 327, 326, 333
177, 307, 300, 299, 306, 328, 321, 320, 327
178, 314, 307, 306, 313, 335, 328, 327, 334
179, 308, 301, 300, 307, 329, 322, 321, 328
180, 315, 308, 307, 314, 336, 329, 328, 335
181, 324, 317, 316, 323, 345, 338, 337, 344
182, 331, 324, 323, 330, 352, 345, 344, 351
183, 325, 318, 317, 324, 346, 339, 338, 345
184, 332, 325, 324, 331, 353, 346, 345, 352
185, 326, 319, 318, 325, 347, 340, 339, 346
186, 333, 326, 325, 332, 354, 347, 346, 353
187, 327, 320, 319, 326, 348, 341, 340, 347
188, 334, 327, 326, 333, 355, 348, 347, 354
189, 328, 321, 320, 327, 349, 342, 341, 348
190, 335, 328, 327, 334, 356, 349, 348, 355
191, 329, 322, 321, 328, 350, 343, 342, 349
192, 336, 329, 328, 335, 357, 350, 349, 356
193, 345, 338, 337, 344, 366, 359, 358, 365
194, 352, 345, 344, 351, 373, 366, 365, 372
195, 346, 339, 338, 345, 367, 360, 359, 366
196, 353, 346, 345, 352, 374, 367, 366, 373
197, 347, 340, 339, 346, 368, 361, 360, 367
198, 354, 347, 346, 353, 375, 368, 367, 374
199, 348, 341, 340, 347, 369, 362, 361, 368
200, 355, 348, 347, 354, 376, 369, 368, 375
201, 349, 342, 341, 348, 370, 363, 362, 369
202, 356, 349, 348, 355, 377, 370, 369, 376
203, 350, 343, 342, 349, 371, 364, 363, 370
204, 357, 350, 349, 356, 378, 371, 370, 377
205, 366, 359, 358, 365, 387, 380, 379, 386
206, 373, 366, 365, 372, 394, 387, 386, 393
207, 367, 360, 359, 366, 388, 381, 380, 387
208, 374, 367, 366, 373, 395, 388, 387, 394
209, 368, 361, 360, 367, 389, 382, 381, 388
210, 375, 368, 367, 374, 396, 389, 388, 395
211, 369, 362, 361, 368, 390, 383, 382, 389
212, 376, 369, 368, 375, 397, 390, 389, 396
213, 370, 363, 362, 369, 391, 384, 383, 390
214, 377, 370, 369, 376, 398, 391, 390, 397
215, 371, 364, 363, 370, 392, 385, 384, 391
216, 378, 371, 370, 377, 399, 392, 391, 398
217, 387, 380, 379, 386, 408, 401, 400, 407
218, 394, 387, 386, 393, 415, 408, 407, 414
219, 388, 381, 380, 387, 409, 402, 401, 408
220, 395, 388, 387, 394, 416, 409, 408, 415
221, 389, 382, 381, 388, 410, 403, 402, 409
222, 396, 389, 388, 395, 417, 410, 409, 416
223, 390, 383, 382, 389, 411, 404, 403, 410
224, 397, 390, 389, 396, 418, 411, 410, 417
225, 391, 384, 383, 390, 412, 405, 404, 411
226, 398, 391, 390, 397, 419, 412, 411, 418
227, 392, 385, 384, 391, 413, 406, 405, 412
228, 399, 392, 391, 398, 420, 413, 412, 419
229, 408, 401, 400, 407, 429, 422, 421, 428
230, 415, 408, 407, 414, 436, 429, 428, 435
231, 409, 402, 401, 408, 430, 423, 422, 429
232, 416, 409, 408, 415, 437, 430, 429, 436
233, 410, 403, 402, 409, 431, 424, 423, 430
234, 417, 410, 409, 416, 438, 431, 430, 437
235, 411, 404, 403, 410, 432, 425, 424, 431
236, 418, 411, 410, 417, 439, 432, 431, 438
237, 412, 405, 404, 411, 433, 426, 425, 432
238, 419, 412, 411, 418, 440, 433, 432, 439
239, 413, 406, 405, 412, 434, 427, 426, 433
240, 420, 413, 412, 419, 441, 434, 433, 440
241, 429, 422, 421, 428, 450, 443, 442, 449
242, 436, 429, 428, 435, 457, 450, 449, 456
243, 430, 423, 422, 429, 451, 444, 443, 450
244, 437, 430, 429, 436, 458, 451, 450, 457
245, 431, 424, 423, 430, 452, 445, 444, 451
246, 438, 431, 430, 437, 459, 452, 451, 458
247, 432, 425, 424, 431, 453, 446, 445, 452
248, 439, 432, 431, 438, 460, 453, 452, 459
249, 433, 426, 425, 432, 454, 447, 446, 453
250, 440, 433, 432, 439, 461, 454, 453, 460
251, 434, 427, 426, 433, 455, 448, 447, 454
252, 441, 434, 433, 440, 462, 455, 454, 461
253, 450, 443, 442, 449, 471, 464, 463, 470
254, 457, 450, 449, 456, 478, 471, 470, 477
255, 451, 444, 443, 450, 472, 465, 464, 471
256, 458, 451, 450, 457, 479, 472, 471, 478
257, 452, 445, 444, 451, 473, 466, 465, 472
258, 459, 452, 451, 458, 480, 473, 472, 479
259, 453, 446, 445, 452, 474, 467, 466, 473
260, 460, 453, 452, 459, 481, 474, 473, 480
261, 454, 447, 446, 453, 475, 468, 467, 474
262, 461, 454, 453, 460, 482, 475, 474, 481
263, 455, 448, 447, 454, 476, 469, 468, 475
264, 462, 455, 454, 461, 483, 476, 475, 482
265, 471, 464, 463, 470, 492, 485, 484, 491
266, 478, 471, 470, 477, 499, 492, 491, 498
267, 472, 465, 464, 471, 493, 486, 485, 492
268, 479, 472, 471, 478, 500, 493, 492, 499
269, 473, 466, 465, 472, 494, 487, 486, 493
270, 480, 473, 472, 479, 501, 494, 493, 500
271, 474, 467, 466, 473, 495, 488, 487, 494
272, 481, 474, 473, 480, 502, 495, 494, 501
273, 475, 468, 467, 474, 496, 489, 488, 495
274, 482, 475, 474, 481, 503, 496, 495, 502
275, 476, 469, 468, 475, 497, 490, 489, 496
276, 483, 476, 475, 482, 504, 497, 496, 503
277, 492, 485, 484, 491, 513, 506, 505, 512
278, 499, 492, 491, 498, 520, 513, 512, 519
279, 493, 486, 485, 492, 514, 507, 506, 513
280, 500, 493, 492, 499, 521, 514, 513, 520
281, 494, 487, 486, 493, 515, 508, 507, 514
282, 501, 494, 493, 500, 522, 515, 514, 521
283, 495, 488, 487, 494, 516, 509, 508, 515
284, 502, 495, 494, 501, 523, 516, 515, 522
285, 496, 489, 488, 495, 517, 510, 509, 516
286, 503, 496, 495, 502, 524, 517, 516, 523
287, 497, 490, 489, 496, 518, 511, 510, 517
288, 504, 497, 496, 503, 525, 518, 517, 524
289, 513, 506, 505, 512, 534, 527, 526, 533
290, 520, 513, 512, 519, 541, 534, 533, 540
291, 514, 507, 506, 513, 535, 528, 527, 534
292, 521, 514, 513, 520, 542, 535, 534, 541
293, 515, 508, 507, 514, 536, 529, 528, 535
294, 522, 515, 514, 521, 543, 536, 535, 542
295, 516, 509, 508, 515, 537, 530, 529, 536
296, 523, 516, 515, 522, 544, 537, 536, 543
297, 517, 510, 509, 516, 538, 531, 530, 537
298, 524, 517, 516, 523, 545, 538, 537, 544
299, 518, 511, 510, 517, 539, 532, 531, 538
300, 525, 518, 517, 524, 546, 539, 538, 545
301, 534, 527, 526, 533, 555, 548, 547, 554
302, 541, 534, 533, 540, 562, 555, 554, 561
303, 535, 528, 527, 534, 556, 549, 548, 555
304, 542, 535, 534, 541, 563, 556, 555, 562
305, 536, 529, 528, 535, 557, 550, 549, 556
306, 543, 536, 535, 542, 564, 557, 556, 563
307, 537, 530, 529, 536, 558, 551, 550, 557
308, 544, 537, 536, 543, 565, 558, 557, 564
309, 538, 531, 530, 537, 559, 552, 551, 558
310, 545, 538, 537, 544, 566, 559, 558, 565
311, 539, 532, 531, 538, 560, 553, 552, 559
312, 546, 539, 538, 545, 567, 560, 559, 566
313, 555, 548, 547, 554, 576, 569, 568, 575
314, 562, 555, 554, 561, 583, 576, 575, 582
315, 556, 549, 548, 555, 577, 570, 569, 576
316, 563, 556, 555, 562, 584, 577, 576, 583
317, 557, 550, 549, 556, 578, 571, 570, 577
318, 564, 557, 556, 563, 585, 578, 577, 584
319, 558, 551, 550, 557, 579, 572, 571, 578
320, 565, 558, 557, 564, 586, 579, 578, 585
321, 559, 552, 551, 558, 580, 573, 572, 579
322, 566, 559, 558, 565, 587, 580, 579, 586
323, 560, 553, 552, 559, 581, 574, 573, 580
324, 567, 560, 559, 566, 588, 581, 580, 587
325, 597, 590, 589, 596, 618, 611, 610, 617
326, 604, 597, 596, 603, 625, 618, 617, 624
327, 598, 591, 590, 597, 619, 612, 611, 618
328, 605, 598, 597, 604, 626, 619, 618, 625
329, 599, 592, 591, 598, 620, 613, 612, 619
330, 606, 599, 598, 605, 627, 620, 619, 626
331, 600, 593, 592, 599, 621, 614, 613, 620
332, 607, 600, 599, 606, 628, 621, 620, 627
333, 601, 594, 593, 600, 622, 615, 614, 621
334, 608, 601, 600, 607, 629, 622, 621, 628
335, 602, 595, 594, 601, 623, 616, 615, 622
336, 609, 602, 601, 608, 630, 623, 622, 629
337, 618, 611, 610, 617, 639, 632, 631, 638
338, 625, 618, 617, 624, 646, 639, 638, 645
339, 619, 612, 611, 618, 640, 633, 632, 639
340, 626, 619, 618, 625, 647, 640, 639, 646
341, 620, 613, 612, 619, 641, 634, 633, 640
342, 627, 620, 619, 626, 648, 641, 640, 647
343, 621, 614, 613, 620, 642, 635, 634, 641
344, 628, 621, 620, 627, 649, 642, 641, 648
345, 622, 615, 614, 621, 643, 636, 635, 642
346, 629, 622, 621, 628, 650, 643, 642, 649
347, 623, 616, 615, 622, 644, 637, 636, 643
348, 630, 623, 622, 629, 651, 644, 643, 650
349, 639, 632, 631, 638, 660, 653, 652, 659
350, 646, 639, 638, 645, 667, 660, 659, 666
351, 640, 633, 632, 639, 661, 654, 653, 660
352, 647, 640, 639, 646, 668, 661, 660, 667
353, 641, 634, 633, 640, 662, 655, 654, 661
354, 648, 641, 640, 647, 669, 662, 661, 668
355, 642, 635, 634, 641, 663, 656, 655, 662
356, 649, 642, 641, 648, 670, 663, 662, 669
357, 643, 636, 635, 642, 664, 657, 656, 663
358, 650, 643, 642, 649, 671, 664, 663, 670
359, 644, 637, 636, 643, 665, 658, 657, 664
360, 651, 644, 643, 650, 672, 665, 664, 671
361, 660, 653, 652, 659, 681, 674, 673, 680
362, 667, 660, 659, 666, 688, 681, 680, 687
363, 661, 654, 653, 660, 682, 675, 674, 681
364, 668, 661, 660, 667, 689, 682, 681, 688
365, 662, 655, 654, 661, 683, 676, 675, 682
366, 669, 662, 661, 668, 690, 683, 682, 689
367, 663, 656, 655, 662, 684, 677, 676, 683
368, 670, 663, 662, 669, 691, 684, 683, 690
369, 664, 657, 656, 663, 685, 678, 677, 684
370, 671, 664, 663, 670, 692, 685, 684, 691
371, 665, 658, 657, 664, 686, 679, 678, 685
372, 672, 665, 664, 671, 693, 686, 685, 692
373, 681, 674, 673, 680, 702, 695, 694, 701
374, 688, 681, 680, 687, 709, 702, 701, 708
375, 682, 675, 674, 681, 703, 696, 695, 702
376, 689, 682, 681, 688, 710, 703, 702, 709
377, 683, 676, 675, 682, 704, 697, 696, 703
378, 690, 683, 682, 689, 711, 704, 703, 710
379, 684, 677, 676, 683, 705, 698, 697, 704
380, 691, 684, 683, 690, 712, 705, 704, 711
381, 685, 678, 677, 684, 706, 699, 698, 705
382, 692, 685, 684, 691, 713, 706, 705, 712
383, 686, 679, 678, 685, 707, 700, 699, 706
384, 693, 686, 685, 692, 714, 707, 706, 713
385, 702, 695, 694, 701, 723, 716, 715, 722
386, 709, 702, 701, 708, 730, 723, 722, 729
387, 703, 696, 695, 702, 724, 717, 716, 723
388, 710, 703, 702, 709, 731, 724, 723, 730
389, 704, 697, 696, 703, 725, 718, 717, 724
390, 711, 704, 703, 710, 732, 725, 724, 731
391, 705, 698, 697, 704, 726, 719, 718, 725
392, 712, 705, 704, 711, 733, 726, 725, 732
393, 706, 699, 698, 705, 727, 720, 719, 726
394, 713, 706, 705, 712, 734, 727, 726, 733
395, 707, 700, 699, 706, 728, 721, 720, 727
396, 714, 707, 706, 713, 735, 728, 727, 734
397, 723, 716, 715, 722, 744, 737, 736, 743
398, 730, 723, 722, 729, 751, 744, 743, 750
399, 724, 717, 716, 723, 745, 738, 737, 744
400, 731, 724, 723, 730, 752, 745, 744, 751
401, 725, 718, 717, 724, 746, 739, 738, 745
402, 732, 725, 724, 731, 753, 746, 745, 752
403, 726, 719, 718, 725, 747, 740, 739, 746
404, 733, 726, 725, 732, 754, 747, 746, 753
405, 727, 720, 719, 726, 748, 741, 740, 747
406, 734, 727, 726, 733, 755, 748, 747, 754
407, 728, 721, 720, 727, 749, 742, 741, 748
408, 735, 728, 727, 734, 756, 749, 748, 755
409, 744, 737, 736, 743, 765, 758, 757, 764
410, 751, 744, 743, 750, 772, 765, 764, 771
411, 745, 738, 737, 744, 766, 759, 758, 765
412, 752, 745, 744, 751, 773, 766, 765, 772
413, 746, 739, 738, 745, 767, 760, 759, 766
414, 753, 746, 745, 752, 774, 767, 766, 773
415, 747, 740, 739, 746, 768, 761, 760, 767
416, 754, 747, 746, 753, 775, 768, 767, 774
417, 748, 741, 740, 747, 769, 762, 761, 768
418, 755, 748, 747, 754, 776, 769, 768, 775
419, 749, 742, 741, 748, 770, 763, 762, 769
420, 756, 749, 748, 755, 777, 770, 769, 776
421, 765, 758, 757, 764, 786, 779, 778, 785
422, 772, 765, 764, 771, 793, 786, 785, 792
423, 766, 759, 758, 765, 787, 780, 779, 786
424, 773, 766, 765, 772, 794, 787, 786, 793
425, 767, 760, 759, 766, 788, 781, 780, 787
426, 774, 767, 766, 773, 795, 788, 787, 794
427, 768, 761, 760, 767, 789, 782, 781, 788
428, 775, 768, 767, 774, 796, 789, 788, 795
429, 769, 762, 761, 768, 790, 783, 782, 789
430, 776, 769, 768, 775, 797, 790, 789, 796
431, 770, 763, 762, 769, 791, 784, 783, 790
432, 777, 770, 769, 776, 798, 791, 790, 797
433, 786, 779, 778, 785, 807, 800, 799, 806
434, 793, 786, 785, 792, 814, 807, 806, 813
435, 787, 780, 779, 786, 808, 801, 800, 807
436, 794, 787, 786, 793, 815, 808, 807, 814
437, 788, 781, 780, 787, 809, 802, 801, 808
438, 795, 788, 787, 794, 816, 809, 808, 815
439, 789, 782, 781, 788, 810, 803, 802, 809
440, 796, 789, 788, 795, 817, 810, 809, 816
441, 790, 783, 782, 789, 811, 804, 803, 810
442, 797, 790, 789, 796, 818, 811, 810, 817
443, 791, 784, 783, 790, 812, 805, 804, 811
444, 798, 791, 790, 797, 819, 812, 811, 818
445, 807, 800, 799, 806, 828, 821, 820, 827
446, 814, 807, 806, 813, 835, 828, 827, 834
447, 808, 801, 800, 807, 829, 822, 821, 828
448, 815, 808, 807, 814, 836, 829, 828, 835
449, 809, 802, 801, 808, 830, 823, 822, 829
450, 816, 809, 808, 815, 837, 830, 829, 836
451, 810, 803, 802, 809, 831, 824, 823, 830
452, 817, 810, 809, 816, 838, 831, 830, 837
453, 811, 804, 803, 810, 832, 825, 824, 831
454, 818, 811, 810, 817, 839, 832, 831, 838
455, 812, 805, 804, 811, 833, 826, 825, 832
456, 819, 812, 811, 818, 840, 833, 832, 839
457, 828, 821, 820, 827, 849, 842, 841, 848
458, 835, 828, 827, 834, 856, 849, 848, 855
459, 829, 822, 821, 828, 850, 843, 842, 849
460, 836, 829, 828, 835, 857, 850, 849, 856
461, 830, 823, 822, 829, 851, 844, 843, 850
462, 837, 830, 829, 836, 858, 851, 850, 857
463, 831, 824, 823, 830, 852, 845, 844, 851
464, 838, 831, 830, 837, 859, 852, 851, 858
465, 832, 825, 824, 831, 853, 846, 845, 852
466, 839, 832, 831, 838, 860, 853, 852, 859
467, 833, 826, 825, 832, 854, 847, 846, 853
468, 840, 833, 832, 839, 861, 854, 853, 860
469, 849, 842, 841, 848, 870, 863, 862, 869
470, 856, 849, 848, 855, 877, 870, 869, 876
471, 850, 843, 842, 849, 871, 864, 863, 870
472, 857, 850, 849, 856, 878, 871, 870, 877
473, 851, 844, 843, 850, 872, 865, 864, 871
474, 858, 851, 850, 857, 879, 872, 871, 878
475, 852, 845, 844, 851, 873, 866, 865, 872
476, 859, 852, 851, 858, 880, 873, 872, 879
477, 853, 846, 845, 852, 874, 867, 866, 873
478, 860, 853, 852, 859, 881, 874, 873, 880
479, 854, 847, 846, 853, 875, 868, 867, 874
480, 861, 854, 853, 860, 882, 875, 874, 881
481, 870, 863, 862, 869, 891, 884, 883, 890
482, 877, 870, 869, 876, 898, 891, 890, 897
483, 871, 864, 863, 870, 892, 885, 884, 891
484, 878, 871, 870, 877, 899, 892, 891, 898
485, 872, 865, 864, 871, 893, 886, 885, 892
486, 879, 872, 871, 878, 900, 893, 892, 899
487, 873, 866, 865, 872, 894, 887, 886, 893
488, 880, 873, 872, 879, 901, 894, 893, 900
489, 874, 867, 866, 873, 895, 888, 887, 894
490, 881, 874, 873, 880, 902, 895, 894, 901
491, 875, 868, 867, 874, 896, 889, 888, 895
492, 882, 875, 874, 881, 903, 896, 895, 902
493, 891, 884, 883, 890, 912, 905, 904, 911
494, 898, 891, 890, 897, 919, 912, 911, 918
495, 892, 885, 884, 891, 913, 906, 905, 912
496, 899, 892, 891, 898, 920, 913, 912, 919
497, 893, 886, 885, 892, 914, 907, 906, 913
498, 900, 893, 892, 899, 921, 914, 913, 920
499, 894, 887, 886, 893, 915, 908, 907, 914
500, 901, 894, 893, 900, 922, 915, 914, 921
501, 895, 888, 887, 894, 916, 909, 908, 915
502, 902, 895, 894, 901, 923, 916, 915, 922
503, 896, 889, 888, 895, 917, 910, 909, 916
504, 903, 896, 895, 902, 924, 917, 916, 923
505, 912, 905, 904, 911, 933, 926, 925, 932
506, 919, 912, 911, 918, 940, 933, 932, 939
507, 913, 906, 905, 912, 934, 927, 926, 933
508, 920, 913, 912, 919, 941, 934, 933, 940
509, 914, 907, 906, 913, 935, 928, 927, 934
510, 921, 914, 913, 920, 942, 935, 934, 941
511, 915, 908, 907, 914, 936, 929, 928, 935
512, 922, 915, 914, 921, 943, 936, 935, 942
513, 916, 909, 908, 915, 937, 930, 929, 936
514, 923, 916, 915, 922, 944, 937, 936, 943
515, 917, 910, 909, 916, 938, 931, 930, 937
516, 924, 917, 916, 923, 945, 938, 937, 944
517, 933, 926, 925, 932, 954, 947, 946, 953
518, 940, 933, 932, 939, 961, 954, 953, 960
519, 934, 927, 926, 933, 955, 948, 947, 954
520, 941, 934, 933, 940, 962, 955, 954, 961
521, 935, 928, 927, 934, 956, 949, 948, 955
522, 942, 935, 934, 941, 963, 956, 955, 962
523, 936, 929, 928, 935, 957, 950, 949, 956
524, 943, 936, 935, 942, 964, 957, 956, 963
525, 937, 930, 929, 936, 958, 951, 950, 957
526, 944, 937, 936, 943, 965, 958, 957, 964
527, 938, 931, 930, 937, 959, 952, 951, 958
528, 945, 938, 937, 944, 966, 959, 958, 965
529, 954, 947, 946, 953, 975, 968, 967, 974
530, 961, 954, 953, 960, 982, 975, 974, 981
531, 955, 948, 947, 954, 976, 969, 968, 975
532, 962, 955, 954, 961, 983, 976, 975, 982
533, 956, 949, 948, 955, 977, 970, 969, 976
534, 963, 956, 955, 962, 984, 977, 976, 983
535, 957, 950, 949, 956, 978, 971, 970, 977
536, 964, 957, 956, 963, 985, 978, 977, 984
537, 958, 951, 950, 957, 979, 972, 971, 978
538, 965, 958, 957, 964, 986, 979, 978, 985
539, 959, 952, 951, 958, 980, 973, 972, 979
540, 966, 959, 958, 965, 987, 980, 979, 986
541, 975, 968, 967, 974, 996, 989, 988, 995
542, 982, 975, 974, 981, 1003, 996, 995, 1002
543, 976, 969, 968, 975, 997, 990, 989, 996
544, 983, 976, 975, 982, 1004, 997, 996, 1003
545, 977, 970, 969, 976, 998, 991, 990, 997
546, 984, 977, 976, 983, 1005, 998, 997, 1004
547, 978, 971, 970, 977, 999, 992, 991, 998
548, 985, 978, 977, 984, 1006, 999, 998, 1005
549, 979, 972, 971, 978, 1000, 993, 992, 999
550, 986, 979, 978, 985, 1007, 1000, 999, 1006
551, 980, 973, 972, 979, 1001, 994, 993, 1000
552, 987, 980, 979, 986, 1008, 1001, 1000, 1007
553, 996, 989, 988, 995, 1017, 1010, 1009, 1016
554, 1003, 996, 995, 1002, 1024, 1017, 1016, 1023
555, 997, 990, 989, 996, 1018, 1011, 1010, 1017
556, 1004, 997, 996, 1003, 1025, 1018, 1017, 1024
557, 998, 991, 990, 997, 1019, 1012, 1011, 1018
558, 1005, 998, 997, 1004, 1026, 1019, 1018, 1025
559, 999, 992, 991, 998, 1020, 1013, 1012, 1019
560, 1006, 999, 998, 1005, 1027, 1020, 1019, 1026
561, 1000, 993, 992, 999, 1021, 1014, 1013, 1020
562, 1007, 1000, 999, 1006, 1028, 1021, 1020, 1027
563, 1001, 994, 993, 1000, 1022, 1015, 1014, 1021
564, 1008, 1001, 1000, 1007, 1029, 1022, 1021, 1028
565, 1017, 1010, 1009, 1016, 1038, 1031, 1030, 1037
566, 1024, 1017, 1016, 1023, 1045, 1038, 1037, 1044
567, 1018, 1011, 1010, 1017, 1039, 1032, 1031, 1038
568, 1025, 1018, 1017, 1024, 1046, 1039, 1038, 1045
569, 1019, 1012, 1011, 1018, 1040, 1033, 1032, 1039
570, 1026, 1019, 1018, 1025, 1047, 1040, 1039, 1046
571, 1020, 1013, 1012, 1019, 1041, 1034, 1033, 1040
572, 1027, 1020, 1019, 1026, 1048, 1041, 1040, 1047
573, 1021, 1014, 1013, 1020, 1042, 1035, 1034, 1041
574, 1028, 1021, 1020, 1027, 1049, 1042, 1041, 1048
575, 1022, 1015, 1014, 1021, 1043, 1036, 1035, 1042
576, 1029, 1022, 1021, 1028, 1050, 1043, 1042, 1049
577, 1038, 1031, 1030, 1037, 1059, 1052, 1051, 1058
578, 1045, 1038, 1037, 1044, 1066, 1059, 1058, 1065
579, 1039, 1032, 1031, 1038, 1060, 1053, 1052, 1059
580, 1046, 1039, 1038, 1045, 1067, 1060, 1059, 1066
581, 1040, 1033, 1032, 1039, 1061, 1054, 1053, 1060
582, 1047, 1040, 1039, 1046, 1068, 1061, 1060, 1067
583, 1041, 1034, 1033, 1040, 1062, 1055, 1054, 1061
584, 1048, 1041, 1040, 1047, 1069, 1062, 1061, 1068
585, 1042, 1035, 1034, 1041, 1063, 1056, 1055, 1062
586, 1049, 1042, 1041, 1048, 1070, 1063, 1062, 1069
587, 1043, 1036, 1035, 1042, 1064, 1057, 1056, 1063
588, 1050, 1043, 1042, 1049, 1071, 1064, 1063, 1070
589, 1059, 1052, 1051, 1058, 1080, 1073, 1072, 1079
590, 1066, 1059, 1058, 1065, 1087, 1080, 1079, 1086
591, 1060, 1053, 1052, 1059, 1081, 1074, 1073, 1080
592, 1067, 1060, 1059, 1066, 1088, 1081, 1080, 1087
593, 1061, 1054, 1053, 1060, 1082, 1075, 1074, 1081
594, 1068, 1061, 1060, 1067, 1089, 1082, 1081, 1088
595, 1062, 1055, 1054, 1061, 1083, 1076, 1075, 1082
596, 1069, 1062, 1061, 1068, 1090, 1083, 1082, 1089
597, 1063, 1056, 1055, 1062, 1084, 1077, 1076, 1083
598, 1070, 1063, 1062, 1069, 1091, 1084, 1083, 1090
599, 1064, 1057, 1056, 1063, 1085, 1078, 1077, 1084
600, 1071, 1064, 1063, 1070, 1092, 1085, 1084, 1091
601, 1080, 1073, 1072, 1079, 1101, 1094, 1093, 1100
602, 1087, 1080, 1079, 1086, 1108, 1101, 1100, 1107
603, 1081, 1074, 1073, 1080, 1102, 1095, 1094, 1101
604, 1088, 1081, 1080, 1087, 1109, 1102, 1101, 1108
605, 1082, 1075, 1074, 1081, 1103, 1096, 1095, 1102
606, 1089, 1082, 1081, 1088, 1110, 1103, 1102, 1109
607, 1083, 1076, 1075, 1082, 1104, 1097, 1096, 1103
608, 1090, 1083, 1082, 1089, 1111, 1104, 1103, 1110
609, 1084, 1077, 1076, 1083, 1105, 1098, 1097, 1104
610, 1091, 1084, 1083, 1090, 1112, 1105, 1104, 1111
611, 1085, 1078, 1077, 1084, 1106, 1099, 1098, 1105
612, 1092, 1085, 1084, 1091, 1113, 1106, 1105, 1112
613, 1101, 1094, 1093, 1100, 1122, 1115, 1114, 1121
614, 1108, 1101, 1100, 1107, 1129, 1122, 1121, 1128
615, 1102, 1095, 1094, 1101, 1123, 1116, 1115, 1122
616, 1109, 1102, 1101, 1108, 1130, 1123, 1122, 1129
617, 1103, 1096, 1095, 1102, 1124, 1117, 1116, 1123
618, 1110, 1103, 1102, 1109, 1131, 1124, 1123, 1130
619, 1104, 1097, 1096, 1103, 1125, 1118, 1117, 1124
620, 1111, 1104, 1103, 1110, 1132, 1125, 1124, 1131
621, 1105, 1098, 1097, 1104, 1126, 1119, 1118, 1125
622, 1112, 1105, 1104, 1111, 1133, 1126, 1125, 1132
623, 1106, 1099, 1098, 1105, 1127, 1120, 1119, 1126
624, 1113, 1106, 1105, 1112, 1134, 1127, 1126, 1133
625, 1122, 1115, 1114, 1121, 1143, 1136, 1135, 1142
626, 1129, 1122, 1121, 1128, 1150, 1143, 1142, 1149
627, 1123, 1116, 1115, 1122, 1144, 1137, 1136, 1143
628, 1130, 1123, 1122, 1129, 1151, 1144, 1143, 1150
629, 1124, 1117, 1116, 1123, 1145, 1138, 1137, 1144
630, 1131, 1124, 1123, 1130, 1152, 1145, 1144, 1151
631, 1125, 1118, 1117, 1124, 1146, 1139, 1138, 1145
632, 1132, 1125, 1124, 1131, 1153, 1146, 1145, 1152
633, 1126, 1119, 1118, 1125, 1147, 1140, 1139, 1146
634, 1133, 1126, 1125, 1132, 1154, 1147, 1146, 1153
635, 1127, 1120, 1119, 1126, 1148, 1141, 1140, 1147
636, 1134, 1127, 1126, 1133, 1155, 1148, 1147, 1154
637, 1143, 1136, 1135, 1142, 1164, 1157, 1156, 1163
638, 1150, 1143, 1142, 1149, 1171, 1164, 1163, 1170
639, 1144, 1137, 1136, 1143, 1165, 1158, 1157, 1164
640, 1151, 1144, 1143, 1150, 1172, 1165, 1164, 1171
641, 1145, 1138, 1137, 1144, 1166, 1159, 1158, 1165
642, 1152, 1145, 1144, 1151, 1173, 1166, 1165, 1172
643, 1146, 1139, 1138, 1145, 1167, 1160, 1159, 1166
644, 1153, 1146, 1145, 1152, 1174, 1167, 1166, 1173
645, 1147, 1140, 1139, 1146, 1168, 1161, 1160, 1167
646, 1154, 1147, 1146, 1153, 1175, 1168, 1167, 1174
647, 1148, 1141, 1140, 1147, 1169, 1162, 1161, 1168
648, 1155, 1148, 1147, 1154, 1176, 1169, 1168, 1175
649, 1185, 1178, 1177, 1184, 1206, 1199, 1198, 1205
650, 1192, 1185, 1184, 1191, 1213, 1206, 1205, 1212
651, 1186, 1179, 1178, 1185, 1207, 1200, 1199, 1206
652, 1193, 1186, 1185, 1192, 1214, 1207, 1206, 1213
653, 1187, 1180, 1179, 1186, 1208, 1201, 1200, 1207
654, 1194, 1187, 1186, 1193, 1215, 1208, 1207, 1214
655, 1188, 1181, 1180, 1187, 1209, 1202, 1201, 1208
656, 1195, 1188, 1187, 1194, 1216, 1209, 1208, 1215
657, 1189, 1182, 1181, 1188, 1210, 1203, 1202, 1209
658, 1196, 1189, 1188, 1195, 1217, 1210, 1209, 1216
659, 1190, 1183, 1182, 1189, 1211, 1204, 1203, 1210
660, 1197, 1190, 1189, 1196, 1218, 1211, 1210, 1217
661, 1206, 1199, 1198, 1205, 1227, 1220, 1219, 1226
662, 1213, 1206, 1205, 1212, 1234, 1227, 1226, 1233
663, 1207, 1200, 1199, 1206, 1228, 1221, 1220, 1227
664, 1214, 1207, 1206, 1213, 1235, 1228, 1227, 1234
665, 1208, 1201, 1200, 1207, 1229, 1222, 1221, 1228
666, 1215, 1208, 1207, 1214, 1236, 1229, 1228, 1235
667, 1209, 1202, 1201, 1208, 1230, 1223, 1222, 1229
668, 1216, 1209, 1208, 1215, 1237, 1230, 1229, 1236
669, 1210, 1203, 1202, 1209, 1231, 1224, 1223, 1230
670, 1217, 1210, 1209, 1216, 1238, 1231, 1230, 1237
671, 1211, 1204, 1203, 1210, 1232, 1225, 1224, 1231
672, 1218, 1211, 1210, 1217, 1239, 1232, 1231, 1238
673, 1227, 1220, 1219, 1226, 1248, 1241, 1240, 1247
674, 1234, 1227, 1226, 1233, 1255, 1248, 1247, 1254
675, 1228, 1221, 1220, 1227, 1249, 1242, 1241, 1248
676, 1235, 1228, 1227, 1234, 1256, 1249, 1248, 1255
677, 1229, 1222, 1221, 1228, 1250, 1243, 1242, 1249
678, 1236, 1229, 1228, 1235, 1257, 1250, 1249, 1256
679, 1230, 1223, 1222, 1229, 1251, 1244, 1243, 1250
680, 1237, 1230, 1229, 1236, 1258, 1251, 1250, 1257
681, 1231, 1224, 1223, 1230, 1252, 1245, 1244, 1251
682, 1238, 1231, 1230, 1237, 1259, 1252, 1251, 1258
683, 1232, 1225, 1224, 1231, 1253, 1246, 1245, 1252
684, 1239, 1232, 1231, 1238, 1260, 1253, 1252, 1259
685, 1248, 1241, 1240, 1247, 1269, 1262, 1261, 1268
686, 1255, 1248, 1247, 1254, 1276, 1269, 1268, 1275
687, 1249, 1242, 1241, 1248, 1270, 1263, 1262, 1269
688, 1256, 1249, 1248, 1255, 1277, 1270, 1269, 1276
689, 1250, 1243, 1242, 1249, 1271, 1264, 1263, 1270
690, 1257, 1250, 1249, 1256, 1278, 1271, 1270, 1277
691, 1251, 1244, 1243, 1250, 1272, 1265, 1264, 1271
692, 1258, 1251, 1250, 1257, 1279, 1272, 1271, 1278
693, 1252, 1245, 1244, 1251, 1273, 1266, 1265, 1272
694, 1259, 1252, 1251, 1258, 1280, 1273, 1272, 1279
695, 1253, 1246, 1245, 1252, 1274, 1267, 1266, 1273
696, 1260, 1253, 1252, 1259, 1281, 1274, 1273, 1280
697, 1269, 1262, 1261, 1268, 1290, 1283, 1282, 1289
698, 1276, 1269, 1268, 1275, 1297, 1290, 1289, 1296
699, 1270, 1263, 1262, 1269, 1291, 1284, 1283, 1290
700, 1277, 1270, 1269, 1276, 1298, 1291, 1290, 1297
701, 1271, 1264, 1263, 1270, 1292, 1285, 1284, 1291
702, 1278, 1271, 1270, 1277, 1299, 1292, 1291, 1298
703, 1272, 1265, 1264, 1271, 1293, 1286, 1285, 1292
704, 1279, 1272, 1271, 1278, 1300, 1293, 1292, 1299
705, 1273, 1266, 1265, 1272, 1294, 1287, 1286, 1293
706, 1280, 1273, 1272, 1279, 1301, 1294, 1293, 1300
707, 1274, 1267, 1266, 1273, 1295, 1288, 1287, 1294
708, 1281, 1274, 1273, 1280, 1302, 1295, 1294, 1301
709, 1290, 1283, 1282, 1289, 1311, 1304, 1303, 1310
710, 1297, 1290, 1289, 1296, 1318, 1311, 1310, 1317
711, 1291, 1284, 1283, 1290, 1312, 1305, 1304, 1311
712, 1298, 1291, 1290, 1297, 1319, 1312, 1311, 1318
713, 1292, 1285, 1284, 1291, 1313, 1306, 1305, 1312
714, 1299, 1292, 1291, 1298, 1320, 1313, 1312, 1319
715, 1293, 1286, 1285, 1292, 1314, 1307, 1306, 1313
716, 1300, 1293, 1292, 1299, 1321, 1314, 1313, 1320
717, 1294, 1287, 1286, 1293, 1315, 1308, 1307, 1314
718, 1301, 1294, 1293, 1300, 1322, 1315, 1314, 1321
719, 1295, 1288, 1287, 1294, 1316, 1309, 1308, 1315
720, 1302, 1295, 1294, 1301, 1323, 1316, 1315, 1322
721, 1311, 1304, 1303, 1310, 1332, 1325, 1324, 1331
722, 1318, 1311, 1310, 1317, 1339, 1332, 1331, 1338
723, 1312, 1305, 1304, 1311, 1333, 1326, 1325, 1332
724, 1319, 1312, 1311, 1318, 1340, 1333, 1332, 1339
725, 1313, 1306, 1305, 1312, 1334, 1327, 1326, 1333
726, 1320, 1313, 1312, 1319, 1341, 1334, 1333, 1340
727, 1314, 1307, 1306, 1313, 1335, 1328, 1327, 1334
728, 1321, 1314, 1313, 1320, 1342, 1335, 1334, 1341
729, 1315, 1308, 1307, 1314, 1336, 1329, 1328, 1335
730, 1322, 1315, 1314, 1321, 1343, 1336, 1335, 1342
731, 1316, 1309, 1308, 1315, 1337, 1330, 1329, 1336
732, 1323, 1316, 1315, 1322, 1344, 1337, 1336, 1343
733, 1332, 1325, 1324, 1331, 1353, 1346, 1345, 1352
734, 1339, 1332, 1331, 1338, 1360, 1353, 1352, 1359
735, 1333, 1326, 1325, 1332, 1354, 1347, 1346, 1353
736, 1340, 1333, 1332, 1339, 1361, 1354, 1353, 1360
737, 1334, 1327, 1326, 1333, 1355, 1348, 1347, 1354
738, 1341, 1334, 1333, 1340, 1362, 1355, 1354, 1361
739, 1335, 1328, 1327, 1334, 1356, 1349, 1348, 1355
740, 1342, 1335, 1334, 1341, 1363, 1356, 1355, 1362
741, 1336, 1329, 1328, 1335, 1357, 1350, 1349, 1356
742, 1343, 1336, 1335, 1342, 1364, 1357, 1356, 1363
743, 1337, 1330, 1329, 1336, 1358, 1351, 1350, 1357
744, 1344, 1337, 1336, 1343, 1365, 1358, 1357, 1364
745, 1353, 1346, 1345, 1352, 1374, 1367, 1366, 1373
746, 1360, 1353, 1352, 1359, 1381, 1374, 1373, 1380
747, 1354, 1347, 1346, 1353, 1375, 1368, 1367, 1374
748, 1361, 1354, 1353, 1360, 1382, 1375, 1374, 1381
749, 1355, 1348, 1347, 1354, 1376, 1369, 1368, 1375
750, 1362, 1355, 1354, 1361, 1383, 1376, 1375, 1382
751, 1356, 1349, 1348, 1355, 1377, 1370, 1369, 1376
752, 1363, 1356, 1355, 1362, 1384, 1377, 1376, 1383
753, 1357, 1350, 1349, 1356, 1378, 1371, 1370, 1377
754, 1364, 1357, 1356, 1363, 1385, 1378, 1377, 1384
755, 1358, 1351, 1350, 1357, 1379, 1372, 1371, 1378
756, 1365, 1358, 1357, 1364, 1386, 1379, 1378, 1385
757, 1374, 1367, 1366, 1373, 1395, 1388, 1387, 1394
758, 1381, 1374, 1373, 1380, 1402, 1395, 1394, 1401
759, 1375, 1368, 1367, 1374, 1396, 1389, 1388, 1395
760, 1382, 1375, 1374, 1381, 1403, 1396, 1395, 1402
761, 1376, 1369, 1368, 1375, 1397, 1390, 1389, 1396
762, 1383, 1376, 1375, 1382, 1404, 1397, 1396, 1403
763, 1377, 1370, 1369, 1376, 1398, 1391, 1390, 1397
764, 1384, 1377, 1376, 1383, 1405, 1398, 1397, 1404
765, 1378, 1371, 1370, 1377, 1399, 1392, 1391, 1398
766, 1385, 1378, 1377, 1384, 1406, 1399, 1398, 1405
767, 1379, 1372, 1371, 1378, 1400, 1393, 1392, 1399
768, 1386, 1379, 1378, 1385, 1407, 1400, 1399, 1406
769, 1395, 1388, 1387, 1394, 1416, 1409, 1408, 1415
770, 1402, 1395, 1394, 1401, 1423, 1416, 1415, 1422
771, 1396, 1389, 1388, 1395, 1417, 1410, 1409, 1416
772, 1403, 1396, 1395, 1402, 1424, 1417, 1416, 1423
773, 1397, 1390, 1389, 1396, 1418, 1411, 1410, 1417
774, 1404, 1397, 1396, 1403, 1425, 1418, 1417, 1424
775, 1398, 1391, 1390, 1397, 1419, 1412, 1411, 1418
776, 1405, 1398, 1397, 1404, 1426, 1419, 1418, 1425
777, 1399, 1392, 1391, 1398, 1420, 1413, 1412, 1419
778, 1406, 1399, 1398, 1405, 1427, 1420, 1419, 1426
779, 1400, 1393, 1392, 1399, 1421, 1414, 1413, 1420
780, 1407, 1400, 1399, 1406, 1428, 1421, 1420, 1427
781, 1416, 1409, 1408, 1415, 1437, 1430, 1429, 1436
782, 1423, 1416, 1415, 1422, 1444, 1437, 1436, 1443
783, 1417, 1410, 1409, 1416, 1438, 1431, 1430, 1437
784, 1424, 1417, 1416, 1423, 1445, 1438, 1437, 1444
785, 1418, 1411, 1410, 1417, 1439, 1432, 1431, 1438
786, 1425, 1418, 1417, 1424, 1446, 1439, 1438, 1445
787, 1419, 1412, 1411, 1418, 1440, 1433, 1432, 1439
788, 1426, 1419, 1418, 1425, 1447, 1440, 1439, 1446
789, 1420, 1413, 1412, 1419, 1441, 1434, 1433, 1440
790, 1427, 1420, 1419, 1426, 1448, 1441, 1440, 1447
791, 1421, 1414, 1413, 1420, 1442, 1435, 1434, 1441
792, 1428, 1421, 1420, 1427, 1449, 1442, 1441, 1448
793, 1437, 1430, 1429, 1436, 1458, 1451, 1450, 1457
794, 1444, 1437, 1436, 1443, 1465, 1458, 1457, 1464
795, 1438, 1431, 1430, 1437, 1459, 1452, 1451, 1458
796, 1445, 1438, 1437, 1444, 1466, 1459, 1458, 1465
797, 1439, 1432, 1431, 1438, 1460, 1453, 1452, 1459
798, 1446, 1439, 1438, 1445, 1467, 1460, 1459, 1466
799, 1440, 1433, 1432, 1439, 1461, 1454, 1453, 1460
800, 1447, 1440, 1439, 1446, 1468, 1461, 1460, 1467
801, 1441, 1434, 1433, 1440, 1462, 1455, 1454, 1461
802, 1448, 1441, 1440, 1447, 1469, 1462, 1461, 1468
803, 1442, 1435, 1434, 1441, 1463, 1456, 1455, 1462
804, 1449, 1442, 1441, 1448, 1470, 1463, 1462, 1469
805, 1458, 1451, 1450, 1457, 1479, 1472, 1471, 1478
806, 1465, 1458, 1457, 1464, 1486, 1479, 1478, 1485
807, 1459, 1452, 1451, 1458, 1480, 1473, 1472, 1479
808, 1466, 1459, 1458, 1465, 1487, 1480, 1479, 1486
809, 1460, 1453, 1452, 1459, 1481, 1474, 1473, 1480
810, 1467, 1460, 1459, 1466, 1488, 1481, 1480, 1487
811, 1461, 1454, 1453, 1460, 1482, 1475, 1474, 1481
812, 1468, 1461, 1460, 1467, 1489, 1482, 1481, 1488
813, 1462, 1455, 1454, 1461, 1483, 1476, 1475, 1482
814, 1469, 1462, 1461, 1468, 1490, 1483, 1482, 1489
815, 1463, 1456, 1455, 1462, 1484, 1477, 1476, 1483
816, 1470, 1463, 1462, 1469, 1491, 1484, 1483, 1490
817, 1479, 1472, 1471, 1478, 1500, 1493, 1492, 1499
818, 1486, 1479, 1478, 1485, 1507, 1500, 1499, 1506
819, 1480, 1473, 1472, 1479, 1501, 1494, 1493, 1500
820, 1487, 1480, 1479, 1486, 1508, 1501, 1500, 1507
821, 1481, 1474, 1473, 1480, 1502, 1495, 1494, 1501
822, 1488, 1481, 1480, 1487, 1509, 1502, 1501, 1508
823, 1482, 1475, 1474, 1481, 1503, 1496, 1495, 1502
824, 1489, 1482, 1481, 1488, 1510, 1503, 1502, 1509
825, 1483, 1476, 1475, 1482, 1504, 1497, 1496, 1503
826, 1490, 1483, 1482, 1489, 1511, 1504, 1503, 1510
827, 1484, 1477, 1476, 1483, 1505, 1498, 1497, 1504
828, 1491, 1484, 1483, 1490, 1512, 1505, 1504, 1511
829, 1500, 1493, 1492, 1499, 1521, 1514, 1513, 1520
830, 1507, 1500, 1499, 1506, 1528, 1521, 1520, 1527
831, 1501, 1494, 1493, 1500, 1522, 1515, 1514, 1521
832, 1508, 1501, 1500, 1507, 1529, 1522, 1521, 1528
833, 1502, 1495, 1494, 1501, 1523, 1516, 1515, 1522
834, 1509, 1502, 1501, 1508, 1530, 1523, 1522, 1529
835, 1503, 1496, 1495, 1502, 1524, 1517, 1516, 1523
836, 1510, 1503, 1502, 1509, 1531, 1524, 1523, 1530
837, 1504, 1497, 1496, 1503, 1525, 1518, 1517, 1524
838, 1511, 1504, 1503, 1510, 1532, 1525, 1524, 1531
839, 1505, 1498, 1497, 1504, 1526, 1519, 1518, 1525
840, 1512, 1505, 1504, 1511, 1533, 1526, 1525, 1532
841, 1521, 1514, 1513, 1520, 1542, 1535, 1534, 1541
842, 1528, 1521, 1520, 1527, 1549, 1542, 1541, 1548
843, 1522, 1515, 1514, 1521, 1543, 1536, 1535, 1542
844, 1529, 1522, 1521, 1528, 1550, 1543, 1542, 1549
845, 1523, 1516, 1515, 1522, 1544, 1537, 1536, 1543
846, 1530, 1523, 1522, 1529, 1551, 1544, 1543, 1550
847, 1524, 1517, 1516, 1523, 1545, 1538, 1537, 1544
848, 1531, 1524, 1523, 1530, 1552, 1545, 1544, 1551
849, 1525, 1518, 1517, 1524, 1546, 1539, 1538, 1545
850, 1532, 1525, 1524, 1531, 1553, 1546, 1545, 1552
851, 1526, 1519, 1518, 1525, 1547, 1540, 1539, 1546
852, 1533, 1526, 1525, 1532, 1554, 1547, 1546, 1553
853, 1542, 1535, 1534, 1541, 1563, 1556, 1555, 1562
854, 1549, 1542, 1541, 1548, 1570, 1563, 1562, 1569
855, 1543, 1536, 1535, 1542, 1564, 1557, 1556, 1563
856, 1550, 1543, 1542, 1549, 1571, 1564, 1563, 1570
857, 1544, 1537, 1536, 1543, 1565, 1558, 1557, 1564
858, 1551, 1544, 1543, 1550, 1572, 1565, 1564, 1571
859, 1545, 1538, 1537, 1544, 1566, 1559, 1558, 1565
860, 1552, 1545, 1544, 1551, 1573, 1566, 1565, 1572
861, 1546, 1539, 1538, 1545, 1567, 1560, 1559, 1566
862, 1553, 1546, 1545, 1552, 1574, 1567, 1566, 1573
863, 1547, 1540, 1539, 1546, 1568, 1561, 1560, 1567
864, 1554, 1547, 1546, 1553, 1575, 1568, 1567, 1574
865, 1563, 1556, 1555, 1562, 1584, 1577, 1576, 1583
866, 1570, 1563, 1562, 1569, 1591, 1584, 1583, 1590
867, 1564, 1557, 1556, 1563, 1585, 1578, 1577, 1584
868, 1571, 1564, 1563, 1570, 1592, 1585, 1584, 1591
869, 1565, 1558, 1557, 1564, 1586, 1579, 1578, 1585
870, 1572, 1565, 1564, 1571, 1593, 1586, 1585, 1592
871, 1566, 1559, 1558, 1565, 1587, 1580, 1579, 1586
872, 1573, 1566, 1565, 1572, 1594, 1587, 1586, 1593
873, 1567, 1560, 1559, 1566, 1588, 1581, 1580, 1587
874, 1574, 1567, 1566, 1573, 1595, 1588, 1587, 1594
875, 1568, 1561, 1560, 1567, 1589, 1582, 1581, 1588
876, 1575, 1568, 1567, 1574, 1596, 1589, 1588, 1595
877, 1584, 1577, 1576, 1583, 1605, 1598, 1597, 1604
878, 1591, 1584, 1583, 1590, 1612, 1605, 1604, 1611
879, 1585, 1578, 1577, 1584, 1606, 1599, 1598, 1605
880, 1592, 1585, 1584, 1591, 1613, 1606, 1605, 1612
881, 1586, 1579, 1578, 1585, 1607, 1600, 1599, 1606
882, 1593, 1586, 1585, 1592, 1614, 1607, 1606, 1613
883, 1587, 1580, 1579, 1586, 1608, 1601, 1600, 1607
884, 1594, 1587, 1586, 1593, 1615, 1608, 1607, 1614
885, 1588, 1581, 1580, 1587, 1609, 1602, 1601, 1608
886, 1595, 1588, 1587, 1594, 1616, 1609, 1608, 1615
887, 1589, 1582, 1581, 1588, 1610, 1603, 1602, 1609
888, 1596, 1589, 1588, 1595, 1617, 1610, 1609, 1616
889, 1605, 1598, 1597, 1604, 1626, 1619, 1618, 1625
890, 1612, 1605, 1604, 1611, 1633, 1626, 1625, 1632
891, 1606, 1599, 1598, 1605, 1627, 1620, 1619, 1626
892, 1613, 1606, 1605, 1612, 1634, 1627, 1626, 1633
893, 1607, 1600, 1599, 1606, 1628, 1621, 1620, 1627
894, 1614, 1607, 1606, 1613, 1635, 1628, 1627, 1634
895, 1608, 1601, 1600, 1607, 1629, 1622, 1621, 1628
896, 1615, 1608, 1607, 1614, 1636, 1629, 1628, 1635
897, 1609, 1602, 1601, 1608, 1630, 1623, 1622, 1629
898, 1616, 1609, 1608, 1615, 1637, 1630, 1629, 1636
899, 1610, 1603, 1602, 1609, 1631, 1624, 1623, 1630
900, 1617, 1610, 1609, 1616, 1638, 1631, 1630, 1637
901, 1626, 1619, 1618, 1625, 1647, 1640, 1639, 1646
902, 1633, 1626, 1625, 1632, 1654, 1647, 1646, 1653
903, 1627, 1620, 1619, 1626, 1648, 1641, 1640, 1647
904, 1634, 1627, 1626, 1633, 1655, 1648, 1647, 1654
905, 1628, 1621, 1620, 1627, 1649, 1642, 1641, 1648
906, 1635, 1628, 1627, 1634, 1656, 1649, 1648, 1655
907, 1629, 1622, 1621, 1628, 1650, 1643, 1642, 1649
908, 1636, 1629, 1628, 1635, 1657, 1650, 1649, 1656
909, 1630, 1623, 1622, 1629, 1651, 1644, 1643, 1650
910, 1637, 1630, 1629, 1636, 1658, 1651, 1650, 1657
911, 1631, 1624, 1623, 1630, 1652, 1645, 1644, 1651
912, 1638, 1631, 1630, 1637, 1659, 1652, 1651, 1658
913, 1647, 1640, 1639, 1646, 1668, 1661, 1660, 1667
914, 1654, 1647, 1646, 1653, 1675, 1668, 1667, 1674
915, 1648, 1641, 1640, 1647, 1669, 1662, 1661, 1668
916, 1655, 1648, 1647, 1654, 1676, 1669, 1668, 1675
917, 1649, 1642, 1641, 1648, 1670, 1663, 1662, 1669
918, 1656, 1649, 1648, 1655, 1677, 1670, 1669, 1676
919, 1650, 1643, 1642, 1649, 1671, 1664, 1663, 1670
920, 1657, 1650, 1649, 1656, 1678, 1671, 1670, 1677
921, 1651, 1644, 1643, 1650, 1672, 1665, 1664, 1671
922, 1658, 1651, 1650, 1657, 1679, 1672, 1671, 1678
923, 1652, 1645, 1644, 1651, 1673, 1666, 1665, 1672
924, 1659, 1652, 1651, 1658, 1680, 1673, 1672, 1679
925, 1668, 1661, 1660, 1667, 1689, 1682, 1681, 1688
926, 1675, 1668, 1667, 1674, 1696, 1689, 1688, 1695
927, 1669, 1662, 1661, 1668, 1690, 1683, 1682, 1689
928, 1676, 1669, 1668, 1675, 1697, 1690, 1689, 1696
929, 1670, 1663, 1662, 1669, 1691, 1684, 1683, 1690
930, 1677, 1670, 1669, 1676, 1698, 1691, 1690, 1697
931, 1671, 1664, 1663, 1670, 1692, 1685, 1684, 1691
932, 1678, 1671, 1670, 1677, 1699, 1692, 1691, 1698
933, 1672, 1665, 1664, 1671, 1693, 1686, 1685, 1692
934, 1679, 1672, 1671, 1678, 1700, 1693, 1692, 1699
935, 1673, 1666, 1665, 1672, 1694, 1687, 1686, 1693
936, 1680, 1673, 1672, 1679, 1701, 1694, 1693, 1700
937, 1689, 1682, 1681, 1688, 1710, 1703, 1702, 1709
938, 1696, 1689, 1688, 1695, 1717, 1710, 1709, 1716
939, 1690, 1683, 1682, 1689, 1711, 1704, 1703, 1710
940, 1697, 1690, 1689, 1696, 1718, 1711, 1710, 1717
941, 1691, 1684, 1683, 1690, 1712, 1705, 1704, 1711
942, 1698, 1691, 1690, 1697, 1719, 1712, 1711, 1718
943, 1692, 1685, 1684, 1691, 1713, 1706, 1705, 1712
944, 1699, 1692, 1691, 1698, 1720, 1713, 1712, 1719
945, 1693, 1686, 1685, 1692, 1714, 1707, 1706, 1713
946, 1700, 1693, 1692, 1699, 1721, 1714, 1713, 1720
947, 1694, 1687, 1686, 1693, 1715, 1708, 1707, 1714
948, 1701, 1694, 1693, 1700, 1722, 1715, 1714, 1721
949, 1710, 1703, 1702, 1709, 1731, 1724, 1723, 1730
950, 1717, 1710, 1709, 1716, 1738, 1731, 1730, 1737
951, 1711, 1704, 1703, 1710, 1732, 1725, 1724, 1731
952, 1718, 1711, 1710, 1717, 1739, 1732, 1731, 1738
953, 1712, 1705, 1704, 1711, 1733, 1726, 1725, 1732
954, 1719, 1712, 1711, 1718, 1740, 1733, 1732, 1739
955, 1713, 1706, 1705, 1712, 1734, 1727, 1726, 1733
956, 1720, 1713, 1712, 1719, 1741, 1734, 1733, 1740
957, 1714, 1707, 1706, 1713, 1735, 1728, 1727, 1734
958, 1721, 1714, 1713, 1720, 1742, 1735, 1734, 1741
959, 1715, 1708, 1707, 1714, 1736, 1729, 1728, 1735
960, 1722, 1715, 1714, 1721, 1743, 1736, 1735, 1742
961, 1731, 1724, 1723, 1730, 1752, 1745, 1744, 1751
962, 1738, 1731, 1730, 1737, 1759, 1752, 1751, 1758
963, 1732, 1725, 1724, 1731, 1753, 1746, 1745, 1752
964, 1739, 1732, 1731, 1738, 1760, 1753, 1752, 1759
965, 1733, 1726, 1725, 1732, 1754, 1747, 1746, 1753
966, 1740, 1733, 1732, 1739, 1761, 1754, 1753, 1760
967, 1734, 1727, 1726, 1733, 1755, 1748, 1747, 1754
968, 1741, 1734, 1733, 1740, 1762, 1755, 1754, 1761
969, 1735, 1728, 1727, 1734, 1756, 1749, 1748, 1755
970, 1742, 1735, 1734, 1741, 1763, 1756, 1755, 1762
971, 1736, 1729, 1728, 1735, 1757, 1750, 1749, 1756
972, 1743, 1736, 1735, 1742, 1764, 1757, 1756, 1763
973, 1773, 1766, 1765, 1772, 1794, 1787, 1786, 1793
974, 1780, 1773, 1772, 1779, 1801, 1794, 1793, 1800
975, 1774, 1767, 1766, 1773, 1795, 1788, 1787, 1794
976, 1781, 1774, 1773, 1780, 1802, 1795, 1794, 1801
977, 1775, 1768, 1767, 1774, 1796, 1789, 1788, 1795
978, 1782, 1775, 1774, 1781, 1803, 1796, 1795, 1802
979, 1776, 1769, 1768, 1775, 1797, 1790, 1789, 1796
980, 1783, 1776, 1775, 1782, 1804, 1797, 1796, 1803
981, 1777, 1770, 1769, 1776, 1798, 1791, 1790, 1797
982, 1784, 1777, 1776, 1783, 1805, 1798, 1797, 1804
983, 1778, 1771, 1770, 1777, 1799, 1792, 1791, 1798
984, 1785, 1778, 1777, 1784, 1806, 1799, 1798, 1805
985, 1794, 1787, 1786, 1793, 1815, 1808, 1807, 1814
986, 1801, 1794, 1793, 1800, 1822, 1815, 1814, 1821
987, 1795, 1788, 1787, 1794, 1816, 1809, 1808, 1815
988, 1802, 1795, 1794, 1801, 1823, 1816, 1815, 1822
989, 1796, 1789, 1788, 1795, 1817, 1810, 1809, 1816
990, 1803, 1796, 1795, 1802, 1824, 1817, 1816, 1823
991, 1797, 1790, 1789, 1796, 1818, 1811, 1810, 1817
992, 1804, 1797, 1796, 1803, 1825, 1818, 1817, 1824
993, 1798, 1791, 1790, 1797, 1819, 1812, 1811, 1818
994, 1805, 1798, 1797, 1804, 1826, 1819, 1818, 1825
995, 1799, 1792, 1791, 1798, 1820, 1813, 1812, 1819
996, 1806, 1799, 1798, 1805, 1827, 1820, 1819, 1826
997, 1815, 1808, 1807, 1814, 1836, 1829, 1828, 1835
998, 1822, 1815, 1814, 1821, 1843, 1836, 1835, 1842
999, 1816, 1809, 1808, 1815, 1837, 1830, 1829, 1836
1000, 1823, 1816, 1815, 1822, 1844, 1837, 1836, 1843
1001, 1817, 1810, 1809, 1816, 1838, 1831, 1830, 1837
1002, 1824, 1817, 1816, 1823, 1845, 1838, 1837, 1844
1003, 1818, 1811, 1810, 1817, 1839, 1832, 1831, 1838
1004, 1825, 1818, 1817, 1824, 1846, 1839, 1838, 1845
1005, 1819, 1812, 1811, 1818, 1840, 1833, 1832, 1839
1006, 1826, 1819, 1818, 1825, 1847, 1840, 1839, 1846
1007, 1820, 1813, 1812, 1819, 1841, 1834, 1833, 1840
1008, 1827, 1820, 1819, 1826, 1848, 1841, 1840, 1847
1009, 1836, 1829, 1828, 1835, 1857, 1850, 1849, 1856
1010, 1843, 1836, 1835, 1842, 1864, 1857, 1856, 1863
1011, 1837, 1830, 1829, 1836, 1858, 1851, 1850, 1857
1012, 1844, 1837, 1836, 1843, 1865, 1858, 1857, 1864
1013, 1838, 1831, 1830, 1837, 1859, 1852, 1851, 1858
1014, 1845, 1838, 1837, 1844, 1866, 1859, 1858, 1865
1015, 1839, 1832, 1831, 1838, 1860, 1853, 1852, 1859
1016, 1846, 1839, 1838, 1845, 1867, 1860, 1859, 1866
1017, 1840, 1833, 1832, 1839, 1861, 1854, 1853, 1860
1018, 1847, 1840, 1839, 1846, 1868, 1861, 1860, 1867
1019, 1841, 1834, 1833, 1840, 1862, 1855, 1854, 1861
1020, 1848, 1841, 1840, 1847, 1869, 1862, 1861, 1868
1021, 1857, 1850, 1849, 1856, 1878, 1871, 1870, 1877
1022, 1864, 1857, 1856, 1863, 1885, 1878, 1877, 1884
1023, 1858, 1851, 1850, 1857, 1879, 1872, 1871, 1878
1024, 1865, 1858, 1857, 1864, 1886, 1879, 1878, 1885
1025, 1859, 1852, 1851, 1858, 1880, 1873, 1872, 1879
1026, 1866, 1859, 1858, 1865, 1887, 1880, 1879, 1886
1027, 1860, 1853, 1852, 1859, 1881, 1874, 1873, 1880
1028, 1867, 1860, 1859, 1866, 1888, 1881, 1880, 1887
1029, 1861, 1854, 1853, 1860, 1882, 1875, 1874, 1881
1030, 1868, 1861, 1860, 1867, 1889, 1882, 1881, 1888
1031, 1862, 1855, 1854, 1861, 1883, 1876, 1875, 1882
1032, 1869, 1862, 1861, 1868, 1890, 1883, 1882, 1889
1033, 1878, 1871, 1870, 1877, 1899, 1892, 1891, 1898
1034, 1885, 1878, 1877, 1884, 1906, 1899, 1898, 1905
1035, 1879, 1872, 1871, 1878, 1900, 1893, 1892, 1899
1036, 1886, 1879, 1878, 1885, 1907, 1900, 1899, 1906
1037, 1880, 1873, 1872, 1879, 1901, 1894, 1893, 1900
1038, 1887, 1880, 1879, 1886, 1908, 1901, 1900, 1907
1039, 1881, 1874, 1873, 1880, 1902, 1895, 1894, 1901
1040, 1888, 1881, 1880, 1887, 1909, 1902, 1901, 1908
1041, 1882, 1875, 1874, 1881, 1903, 1896, 1895, 1902
1042, 1889, 1882, 1881, 1888, 1910, 1903, 1902, 1909
1043, 1883, 1876, 1875, 1882, 1904, 1897, 1896, 1903
1044, 1890, 1883, 1882, 1889, 1911, 1904, 1903, 1910
1045, 1899, 1892, 1891, 1898, 1920, 1913, 1912, 1919
1046, 1906, 1899, 1898, 1905, 1927, 1920, 1919, 1926
1047, 1900, 1893, 1892, 1899, 1921, 1914, 1913, 1920
1048, 1907, 1900, 1899, 1906, 1928, 1921, 1920, 1927
1049, 1901, 1894, 1893, 1900, 1922, 1915, 1914, 1921
1050, 1908, 1901, 1900, 1907, 1929, 1922, 1921, 1928
1051, 1902, 1895, 1894, 1901, 1923, 1916, 1915, 1922
1052, 1909, 1902, 1901, 1908, 1930, 1923, 1922, 1929
1053, 1903, 1896, 1895, 1902, 1924, 1917, 1916, 1923
1054, 1910, 1903, 1902, 1909, 1931, 1924, 1923, 1930
1055, 1904, 1897, 1896, 1903, 1925, 1918, 1917, 1924
1056, 1911, 1904, 1903, 1910, 1932, 1925, 1924, 1931
1057, 1920, 1913, 1912, 1919, 1941, 1934, 1933, 1940
1058, 1927, 1920, 1919, 1926, 1948, 1941, 1940, 1947
1059, 1921, 1914, 1913, 1920, 1942, 1935, 1934, 1941
1060, 1928, 1921, 1920, 1927, 1949, 1942, 1941, 1948
1061, 1922, 1915, 1914, 1921, 1943, 1936, 1935, 1942
1062, 1929, 1922, 1921, 1928, 1950, 1943, 1942, 1949
1063, 1923, 1916, 1915, 1922, 1944, 1937, 1936, 1943
1064, 1930, 1923, 1922, 1929, 1951, 1944, 1943, 1950
1065, 1924, 1917, 1916, 1923, 1945, 1938, 1937, 1944
1066, 1931, 1924, 1923, 1930, 1952, 1945, 1944, 1951
1067, 1925, 1918, 1917, 1924, 1946, 1939, 1938, 1945
1068, 1932, 1925, 1924, 1931, 1953, 1946, 1945, 1952
1069, 1941, 1934, 1933, 1940, 1962, 1955, 1954, 1961
1070, 1948, 1941, 1940, 1947, 1969, 1962, 1961, 1968
1071, 1942, 1935, 1934, 1941, 1963, 1956, 1955, 1962
1072, 1949, 1942, 1941, 1948, 1970, 1963, 1962, 1969
1073, 1943, 1936, 1935, 1942, 1964, 1957, 1956, 1963
1074, 1950, 1943, 1942, 1949, 1971, 1964, 1963, 1970
1075, 1944, 1937, 1936, 1943, 1965, 1958, 1957, 1964
1076, 1951, 1944, 1943, 1950, 1972, 1965, 1964, 1971
1077, 1945, 1938, 1937, 1944, 1966, 1959, 1958, 1965
1078, 1952, 1945, 1944, 1951, 1973, 1966, 1965, 1972
1079, 1946, 1939, 1938, 1945, 1967, 1960, 1959, 1966
1080, 1953, 1946, 1945, 1952, 1974, 1967, 1966, 1973
1081, 1962, 1955, 1954, 1961, 1983, 1976, 1975, 1982
1082, 1969, 1962, 1961, 1968, 1990, 1983, 1982, 1989
1083, 1963, 1956, 1955, 1962, 1984, 1977, 1976, 1983
1084, 1970, 1963, 1962, 1969, 1991, 1984, 1983, 1990
1085, 1964, 1957, 1956, 1963, 1985, 1978, 1977, 1984
1086, 1971, 1964, 1963, 1970, 1992, 1985, 1984, 1991
1087, 1965, 1958, 1957, 1964, 1986, 1979, 1978, 1985
1088, 1972, 1965, 1964, 1971, 1993, 1986, 1985, 1992
1089, 1966, 1959, 1958, 1965, 1987, 1980, 1979, 1986
1090, 1973, 1966, 1965, 1972, 1994, 1987, 1986, 1993
1091, 1967, 1960, 1959, 1966, 1988, 1981, 1980, 1987
1092, 1974, 1967, 1966, 1973, 1995, 1988, 1987, 1994
1093, 1983, 1976, 1975, 1982, 2004, 1997, 1996, 2003
1094, 1990, 1983, 1982, 1989, 2011, 2004, 2003, 2010
1095, 1984, 1977, 1976, 1983, 2005, 1998, 1997, 2004
1096, 1991, 1984, 1983, 1990, 2012, 2005, 2004, 2011
1097, 1985, 1978, 1977, 1984, 2006, 1999, 1998, 2005
1098, 1992, 1985, 1984, 1991, 2013, 2006, 2005, 2012
1099, 1986, 1979, 1978, 1985, 2007, 2000, 1999, 2006
1100, 1993, 1986, 1985, 1992, 2014, 2007, 2006, 2013
1101, 1987, 1980, 1979, 1986, 2008, 2001, 2000, 2007
1102, 1994, 1987, 1986, 1993, 2015, 2008, 2007, 2014
1103, 1988, 1981, 1980, 1987, 2009, 2002, 2001, 2008
1104, 1995, 1988, 1987, 1994, 2016, 2009, 2008, 2015
1105, 2004, 1997, 1996, 2003, 2025, 2018, 2017, 2024
1106, 2011, 2004, 2003, 2010, 2032, 2025, 2024, 2031
1107, 2005, 1998, 1997, 2004, 2026, 2019, 2018, 2025
1108, 2012, 2005, 2004, 2011, 2033, 2026, 2025, 2032
1109, 2006, 1999, 1998, 2005, 2027, 2020, 2019, 2026
1110, 2013, 2006, 2005, 2012, 2034, 2027, 2026, 2033
1111, 2007, 2000, 1999, 2006, 2028, 2021, 2020, 2027
1112, 2014, 2007, 2006, 2013, 2035, 2028, 2027, 2034
1113, 2008, 2001, 2000, 2007, 2029, 2022, 2021, 2028
1114, 2015, 2008, 2007, 2014, 2036, 2029, 2028, 2035
1115, 2009, 2002, 2001, 2008, 2030, 2023, 2022, 2029
1116, 2016, 2009, 2008, 2015, 2037, 2030, 2029, 2036
1117, 2025, 2018, 2017, 2024, 2046, 2039, 2038, 2045
1118, 2032, 2025, 2024, 2031, 2053, 2046, 2045, 2052
1119, 2026, 2019, 2018, 2025, 2047, 2040, 2039, 2046
1120, 2033, 2026, 2025, 2032, 2054, 2047, 2046, 2053
1121, 2027, 2020, 2019, 2026, 2048, 2041, 2040, 2047
1122, 2034, 2027, 2026, 2033, 2055, 2048, 2047, 2054
1123, 2028, 2021, 2020, 2027, 2049, 2042, 2041, 2048
1124, 2035, 2028, 2027, 2034, 2056, 2049, 2048, 2055
1125, 2029, 2022, 2021, 2028, 2050, 2043, 2042, 2049
1126, 2036, 2029, 2028, 2035, 2057, 2050, 2049, 2056
1127, 2030, 2023, 2022, 2029, 2051, 2044, 2043, 2050
1128, 2037, 2030, 2029, 2036, 2058, 2051, 2050, 2057
1129, 2046, 2039, 2038, 2045, 2067, 2060, 2059, 2066
1130, 2053, 2046, 2045, 2052, 2074, 2067, 2066, 2073
1131, 2047, 2040, 2039, 2046, 2068, 2061, 2060, 2067
1132, 2054, 2047, 2046, 2053, 2075, 2068, 2067, 2074
1133, 2048, 2041, 2040, 2047, 2069, 2062, 2061, 2068
1134, 2055, 2048, 2047, 2054, 2076, 2069, 2068, 2075
1135, 2049, 2042, 2041, 2048, 2070, 2063, 2062, 2069
1136, 2056, 2049, 2048, 2055, 2077, 2070, 2069, 2076
1137, 2050, 2043, 2042, 2049, 2071, 2064, 2063, 2070
1138, 2057, 2050, 2049, 2056, 2078, 2071, 2070, 2077
1139, 2051, 2044, 2043, 2050, 2072, 2065, 2064, 2071
1140, 2058, 2051, 2050, 2057, 2079, 2072, 2071, 2078
1141, 2067, 2060, 2059, 2066, 2088, 2081, 2080, 2087
1142, 2074, 2067, 2066, 2073, 2095, 2088, 2087, 2094
1143, 2068, 2061, 2060, 2067, 2089, 2082, 2081, 2088
1144, 2075, 2068, 2067, 2074, 2096, 2089, 2088, 2095
1145, 2069, 2062, 2061, 2068, 2090, 2083, 2082, 2089
1146, 2076, 2069, 2068, 2075, 2097, 2090, 2089, 2096
1147, 2070, 2063, 2062, 2069, 2091, 2084, 2083, 2090
1148, 2077, 2070, 2069, 2076, 2098, 2091, 2090, 2097
1149, 2071, 2064, 2063, 2070, 2092, 2085, 2084, 2091
1150, 2078, 2071, 2070, 2077, 2099, 2092, 2091, 2098
1151, 2072, 2065, 2064, 2071, 2093, 2086, 2085, 2092
1152, 2079, 2072, 2071, 2078, 2100, 2093, 2092, 2099
1153, 2088, 2081, 2080, 2087, 2109, 2102, 2101, 2108
1154, 2095, 2088, 2087, 2094, 2116, 2109, 2108, 2115
1155, 2089, 2082, 2081, 2088, 2110, 2103, 2102, 2109
1156, 2096, 2089, 2088, 2095, 2117, 2110, 2109, 2116
1157, 2090, 2083, 2082, 2089, 2111, 2104, 2103, 2110
1158, 2097, 2090, 2089, 2096, 2118, 2111, 2110, 2117
1159, 2091, 2084, 2083, 2090, 2112, 2105, 2104, 2111
1160, 2098, 2091, 2090, 2097, 2119, 2112, 2111, 2118
1161, 2092, 2085, 2084, 2091, 2113, 2106, 2105, 2112
1162, 2099, 2092, 2091, 2098, 2120, 2113, 2112, 2119
1163, 2093, 2086, 2085, 2092, 2114, 2107, 2106, 2113
1164, 2100, 2093, 2092, 2099, 2121, 2114, 2113, 2120
1165, 2109, 2102, 2101, 2108, 2130, 2123, 2122, 2129
1166, 2116, 2109, 2108, 2115, 2137, 2130, 2129, 2136
1167, 2110, 2103, 2102, 2109, 2131, 2124, 2123, 2130
1168, 2117, 2110, 2109, 2116, 2138, 2131, 2130, 2137
1169, 2111, 2104, 2103, 2110, 2132, 2125, 2124, 2131
1170, 2118, 2111, 2110, 2117, 2139, 2132, 2131, 2138
1171, 2112, 2105, 2104, 2111, 2133, 2126, 2125, 2132
1172, 2119, 2112, 2111, 2118, 2140, 2133, 2132, 2139
1173, 2113, 2106, 2105, 2112, 2134, 2127, 2126, 2133
1174, 2120, 2113, 2112, 2119, 2141, 2134, 2133, 2140
1175, 2114, 2107, 2106, 2113, 2135, 2128, 2127, 2134
1176, 2121, 2114, 2113, 2120, 2142, 2135, 2134, 2141
1177, 2130, 2123, 2122, 2129, 2151, 2144, 2143, 2150
1178, 2137, 2130, 2129, 2136, 2158, 2151, 2150, 2157
1179, 2131, 2124, 2123, 2130, 2152, 2145, 2144, 2151
1180, 2138, 2131, 2130, 2137, 2159, 2152, 2151, 2158
1181, 2132, 2125, 2124, 2131, 2153, 2146, 2145, 2152
1182, 2139, 2132, 2131, 2138, 2160, 2153, 2152, 2159
1183, 2133, 2126, 2125, 2132, 2154, 2147, 2146, 2153
1184, 2140, 2133, 2132, 2139, 2161, 2154, 2153, 2160
1185, 2134, 2127, 2126, 2133, 2155, 2148, 2147, 2154
1186, 2141, 2134, 2133, 2140, 2162, 2155, 2154, 2161
1187, 2135, 2128, 2127, 2134, 2156, 2149, 2148, 2155
1188, 2142, 2135, 2134, 2141, 2163, 2156, 2155, 2162
1189, 2151, 2144, 2143, 2150, 2172, 2165, 2164, 2171
1190, 2158, 2151, 2150, 2157, 2179, 2172, 2171, 2178
1191, 2152, 2145, 2144, 2151, 2173, 2166, 2165, 2172
1192, 2159, 2152, 2151, 2158, 2180, 2173, 2172, 2179
1193, 2153, 2146, 2145, 2152, 2174, 2167, 2166, 2173
1194, 2160, 2153, 2152, 2159, 2181, 2174, 2173, 2180
1195, 2154, 2147, 2146, 2153, 2175, 2168, 2167, 2174
1196, 2161, 2154, 2153, 2160, 2182, 2175, 2174, 2181
1197, 2155, 2148, 2147, 2154, 2176, 2169, 2168, 2175
1198, 2162, 2155, 2154, 2161, 2183, 2176, 2175, 2182
1199, 2156, 2149, 2148, 2155, 2177, 2170, 2169, 2176
1200, 2163, 2156, 2155, 2162, 2184, 2177, 2176, 2183
1201, 2172, 2165, 2164, 2171, 2193, 2186, 2185, 2192
1202, 2179, 2172, 2171, 2178, 2200, 2193, 2192, 2199
1203, 2173, 2166, 2165, 2172, 2194, 2187, 2186, 2193
1204, 2180, 2173, 2172, 2179, 2201, 2194, 2193, 2200
1205, 2174, 2167, 2166, 2173, 2195, 2188, 2187, 2194
1206, 2181, 2174, 2173, 2180, 2202, 2195, 2194, 2201
1207, 2175, 2168, 2167, 2174, 2196, 2189, 2188, 2195
1208, 2182, 2175, 2174, 2181, 2203, 2196, 2195, 2202
1209, 2176, 2169, 2168, 2175, 2197, 2190, 2189, 2196
1210, 2183, 2176, 2175, 2182, 2204, 2197, 2196, 2203
1211, 2177, 2170, 2169, 2176, 2198, 2191, 2190, 2197
1212, 2184, 2177, 2176, 2183, 2205, 2198, 2197, 2204
1213, 2193, 2186, 2185, 2192, 2214, 2207, 2206, 2213
1214, 2200, 2193, 2192, 2199, 2221, 2214, 2213, 2220
1215, 2194, 2187, 2186, 2193, 2215, 2208, 2207, 2214
1216, 2201, 2194, 2193, 2200, 2222, 2215, 2214, 2221
1217, 2195, 2188, 2187, 2194, 2216, 2209, 2208, 2215
1218, 2202, 2195, 2194, 2201, 2223, 2216, 2215, 2222
1219, 2196, 2189, 2188, 2195, 2217, 2210, 2209, 2216
1220, 2203, 2196, 2195, 2202, 2224, 2217, 2216, 2223
1221, 2197, 2190, 2189, 2196, 2218, 2211, 2210, 2217
1222, 2204, 2197, 2196, 2203, 2225, 2218, 2217, 2224
1223, 2198, 2191, 2190, 2197, 2219, 2212, 2211, 2218
1224, 2205, 2198, 2197, 2204, 2226, 2219, 2218, 2225
1225, 2214, 2207, 2206, 2213, 2235, 2228, 2227, 2234
1226, 2221, 2214, 2213, 2220, 2242, 2235, 2234, 2241
1227, 2215, 2208, 2207, 2214, 2236, 2229, 2228, 2235
1228, 2222, 2215, 2214, 2221, 2243, 2236, 2235, 2242
1229, 2216, 2209, 2208, 2215, 2237, 2230, 2229, 2236
1230, 2223, 2216, 2215, 2222, 2244, 2237, 2236, 2243
1231, 2217, 2210, 2209, 2216, 2238, 2231, 2230, 2237
1232, 2224, 2217, 2216, 2223, 2245, 2238, 2237, 2244
1233, 2218, 2211, 2210, 2217, 2239, 2232, 2231, 2238
1234, 2225, 2218, 2217, 2224, 2246, 2239, 2238, 2245
1235, 2219, 2212, 2211, 2218, 2240, 2233, 2232, 2239
1236, 2226, 2219, 2218, 2225, 2247, 2240, 2239, 2246
1237, 2235, 2228, 2227, 2234, 2256, 2249, 2248, 2255
1238, 2242, 2235, 2234, 2241, 2263, 2256, 2255, 2262
1239, 2236, 2229, 2228, 2235, 2257, 2250, 2249, 2256
1240, 2243, 2236, 2235, 2242, 2264, 2257, 2256, 2263
1241, 2237, 2230, 2229, 2236, 2258, 2251, 2250, 2257
1242, 2244, 2237, 2236, 2243, 2265, 2258, 2257, 2264
1243, 2238, 2231, 2230, 2237, 2259, 2252, 2251, 2258
1244, 2245, 2238, 2237, 2244, 2266, 2259, 2258, 2265
1245, 2239, 2232, 2231, 2238, 2260, 2253, 2252, 2259
1246, 2246, 2239, 2238, 2245, 2267, 2260, 2259, 2266
1247, 2240, 2233, 2232, 2239, 2261, 2254, 2253, 2260
1248, 2247, 2240, 2239, 2246, 2268, 2261, 2260, 2267
1249, 2256, 2249, 2248, 2255, 2277, 2270, 2269, 2276
1250, 2263, 2256, 2255, 2262, 2284, 2277, 2276, 2283
1251, 2257, 2250, 2249, 2256, 2278, 2271, 2270, 2277
1252, 2264, 2257, 2256, 2263, 2285, 2278, 2277, 2284
1253, 2258, 2251, 2250, 2257, 2279, 2272, 2271, 2278
1254, 2265, 2258, 2257, 2264, 2286, 2279, 2278, 2285
1255, 2259, 2252, 2251, 2258, 2280, 2273, 2272, 2279
1256, 2266, 2259, 2258, 2265, 2287, 2280, 2279, 2286
1257, 2260, 2253, 2252, 2259, 2281, 2274, 2273, 2280
1258, 2267, 2260, 2259, 2266, 2288, 2281, 2280, 2287
1259, 2261, 2254, 2253, 2260, 2282, 2275, 2274, 2281
1260, 2268, 2261, 2260, 2267, 2289, 2282, 2281, 2288
1261, 2277, 2270, 2269, 2276, 2298, 2291, 2290, 2297
1262, 2284, 2277, 2276, 2283, 2305, 2298, 2297, 2304
1263, 2278, 2271, 2270, 2277, 2299, 2292, 2291, 2298
1264, 2285, 2278, 2277, 2284, 2306, 2299, 2298, 2305
1265, 2279, 2272, 2271, 2278, 2300, 2293, 2292, 2299
1266, 2286, 2279, 2278, 2285, 2307, 2300, 2299, 2306
1267, 2280, 2273, 2272, 2279, 2301, 2294, 2293, 2300
1268, 2287, 2280, 2279, 2286, 2308, 2301, 2300, 2307
1269, 2281, 2274, 2273, 2280, 2302, 2295, 2294, 2301
1270, 2288, 2281, 2280, 2287, 2309, 2302, 2301, 2308
1271, 2282, 2275, 2274, 2281, 2303, 2296, 2295, 2302
1272, 2289, 2282, 2281, 2288, 2310, 2303, 2302, 2309
1273, 2298, 2291, 2290, 2297, 2319, 2312, 2311, 2318
1274, 2305, 2298, 2297, 2304, 2326, 2319, 2318, 2325
1275, 2299, 2292, 2291, 2298, 2320, 2313, 2312, 2319
1276, 2306, 2299, 2298, 2305, 2327, 2320, 2319, 2326
1277, 2300, 2293, 2292, 2299, 2321, 2314, 2313, 2320
1278, 2307, 2300, 2299, 2306, 2328, 2321, 2320, 2327
1279, 2301, 2294, 2293, 2300, 2322, 2315, 2314, 2321
1280, 2308, 2301, 2300, 2307, 2329, 2322, 2321, 2328
1281, 2302, 2295, 2294, 2301, 2323, 2316, 2315, 2322
1282, 2309, 2302, 2301, 2308, 2330, 2323, 2322, 2329
1283, 2303, 2296, 2295, 2302, 2324, 2317, 2316, 2323
1284, 2310, 2303, 2302, 2309, 2331, 2324, 2323, 2330
1285, 2319, 2312, 2311, 2318, 2340, 2333, 2332, 2339
1286, 2326, 2319, 2318, 2325, 2347, 2340, 2339, 2346
1287, 2320, 2313, 2312, 2319, 2341, 2334, 2333, 2340
1288, 2327, 2320, 2319, 2326, 2348, 2341, 2340, 2347
1289, 2321, 2314, 2313, 2320, 2342, 2335, 2334, 2341
1290, 2328, 2321, 2320, 2327, 2349, 2342, 2341, 2348
1291, 2322, 2315, 2314, 2321, 2343, 2336, 2335, 2342
1292, 2329, 2322, 2321, 2328, 2350, 2343, 2342, 2349
1293, 2323, 2316, 2315, 2322, 2344, 2337, 2336, 2343
1294, 2330, 2323, 2322, 2329, 2351, 2344, 2343, 2350
1295, 2324, 2317, 2316, 2323, 2345, 2338, 2337, 2344
1296, 2331, 2324, 2323, 2330, 2352, 2345, 2344, 2351
1297, 2361, 2354, 2353, 2360, 2382, 2375, 2374, 2381
1298, 2368, 2361, 2360, 2367, 2389, 2382, 2381, 2388
1299, 2362, 2355, 2354, 2361, 2383, 2376, 2375, 2382
1300, 2369, 2362, 2361, 2368, 2390, 2383, 2382, 2389
1301, 2363, 2356, 2355, 2362, 2384, 2377, 2376, 2383
1302, 2370, 2363, 2362, 2369, 2391, 2384, 2383, 2390
1303, 2364, 2357, 2356, 2363, 2385, 2378, 2377, 2384
1304, 2371, 2364, 2363, 2370, 2392, 2385, 2384, 2391
1305, 2365, 2358, 2357, 2364, 2386, 2379, 2378, 2385
1306, 2372, 2365, 2364, 2371, 2393, 2386, 2385, 2392
1307, 2366, 2359, 2358, 2365, 2387, 2380, 2379, 2386
1308, 2373, 2366, 2365, 2372, 2394, 2387, 2386, 2393
1309, 2382, 2375, 2374, 2381, 2403, 2396, 2395, 2402
1310, 2389, 2382, 2381, 2388, 2410, 2403, 2402, 2409
1311, 2383, 2376, 2375, 2382, 2404, 2397, 2396, 2403
1312, 2390, 2383, 2382, 2389, 2411, 2404, 2403, 2410
1313, 2384, 2377, 2376, 2383, 2405, 2398, 2397, 2404
1314, 2391, 2384, 2383, 2390, 2412, 2405, 2404, 2411
1315, 2385, 2378, 2377, 2384, 2406, 2399, 2398, 2405
1316, 2392, 2385, 2384, 2391, 2413, 2406, 2405, 2412
1317, 2386, 2379, 2378, 2385, 2407, 2400, 2399, 2406
1318, 2393, 2386, 2385, 2392, 2414, 2407, 2406, 2413
1319, 2387, 2380, 2379, 2386, 2408, 2401, 2400, 2407
1320, 2394, 2387, 2386, 2393, 2415, 2408, 2407, 2414
1321, 2403, 2396, 2395, 2402, 2424, 2417, 2416, 2423
1322, 2410, 2403, 2402, 2409, 2431, 2424, 2423, 2430
1323, 2404, 2397, 2396, 2403, 2425, 2418, 2417, 2424
1324, 2411, 2404, 2403, 2410, 2432, 2425, 2424, 2431
1325, 2405, 2398, 2397, 2404, 2426, 2419, 2418, 2425
1326, 2412, 2405, 2404, 2411, 2433, 2426, 2425, 2432
1327, 2406, 2399, 2398, 2405, 2427, 2420, 2419, 2426
1328, 2413, 2406, 2405, 2412, 2434, 2427, 2426, 2433
1329, 2407, 2400, 2399, 2406, 2428, 2421, 2420, 2427
1330, 2414, 2407, 2406, 2413, 2435, 2428, 2427, 2434
1331, 2408, 2401, 2400, 2407, 2429, 2422, 2421, 2428
1332, 2415, 2408, 2407, 2414, 2436, 2429, 2428, 2435
1333, 2424, 2417, 2416, 2423, 2445, 2438, 2437, 2444
1334, 2431, 2424, 2423, 2430, 2452, 2445, 2444, 2451
1335, 2425, 2418, 2417, 2424, 2446, 2439, 2438, 2445
1336, 2432, 2425, 2424, 2431, 2453, 2446, 2445, 2452
1337, 2426, 2419, 2418, 2425, 2447, 2440, 2439, 2446
1338, 2433, 2426, 2425, 2432, 2454, 2447, 2446, 2453
1339, 2427, 2420, 2419, 2426, 2448, 2441, 2440, 2447
1340, 2434, 2427, 2426, 2433, 2455, 2448, 2447, 2454
1341, 2428, 2421, 2420, 2427, 2449, 2442, 2441, 2448
1342, 2435, 2428, 2427, 2434, 2456, 2449, 2448, 2455
1343, 2429, 2422, 2421, 2428, 2450, 2443, 2442, 2449
1344, 2436, 2429, 2428, 2435, 2457, 2450, 2449, 2456
1345, 2445, 2438, 2437, 2444, 2466, 2459, 2458, 2465
1346, 2452, 2445, 2444, 2451, 2473, 2466, 2465, 2472
1347, 2446, 2439, 2438, 2445, 2467, 2460, 2459, 2466
1348, 2453, 2446, 2445, 2452, 2474, 2467, 2466, 2473
1349, 2447, 2440, 2439, 2446, 2468, 2461, 2460, 2467
1350, 2454, 2447, 2446, 2453, 2475, 2468, 2467, 2474
1351, 2448, 2441, 2440, 2447, 2469, 2462, 2461, 2468
1352, 2455, 2448, 2447, 2454, 2476, 2469, 2468, 2475
1353, 2449, 2442, 2441, 2448, 2470, 2463, 2462, 2469
1354, 2456, 2449, 2448, 2455, 2477, 2470, 2469, 2476
1355, 2450, 2443, 2442, 2449, 2471, 2464, 2463, 2470
1356, 2457, 2450, 2449, 2456, 2478, 2471, 2470, 2477
1357, 2466, 2459, 2458, 2465, 2487, 2480, 2479, 2486
1358, 2473, 2466, 2465, 2472, 2494, 2487, 2486, 2493
1359, 2467, 2460, 2459, 2466, 2488, 2481, 2480, 2487
1360, 2474, 2467, 2466, 2473, 2495, 2488, 2487, 2494
1361, 2468, 2461, 2460, 2467, 2489, 2482, 2481, 2488
1362, 2475, 2468, 2467, 2474, 2496, 2489, 2488, 2495
1363, 2469, 2462, 2461, 2468, 2490, 2483, 2482, 2489
1364, 2476, 2469, 2468, 2475, 2497, 2490, 2489, 2496
1365, 2470, 2463, 2462, 2469, 2491, 2484, 2483, 2490
1366, 2477, 2470, 2469, 2476, 2498, 2491, 2490, 2497
1367, 2471, 2464, 2463, 2470, 2492, 2485, 2484, 2491
1368, 2478, 2471, 2470, 2477, 2499, 2492, 2491, 2498
1369, 2487, 2480, 2479, 2486, 2508, 2501, 2500, 2507
1370, 2494, 2487, 2486, 2493, 2515, 2508, 2507, 2514
1371, 2488, 2481, 2480, 2487, 2509, 2502, 2501, 2508
1372, 2495, 2488, 2487, 2494, 2516, 2509, 2508, 2515
1373, 2489, 2482, 2481, 2488, 2510, 2503, 2502, 2509
1374, 2496, 2489, 2488, 2495, 2517, 2510, 2509, 2516
1375, 2490, 2483, 2482, 2489, 2511, 2504, 2503, 2510
1376, 2497, 2490, 2489, 2496, 2518, 2511, 2510, 2517
1377, 2491, 2484, 2483, 2490, 2512, 2505, 2504, 2511
1378, 2498, 2491, 2490, 2497, 2519, 2512, 2511, 2518
1379, 2492, 2485, 2484, 2491, 2513, 2506, 2505, 2512
1380, 2499, 2492, 2491, 2498, 2520, 2513, 2512, 2519
1381, 2508, 2501, 2500, 2507, 2529, 2522, 2521, 2528
1382, 2515, 2508, 2507, 2514, 2536, 2529, 2528, 2535
1383, 2509, 2502, 2501, 2508, 2530, 2523, 2522, 2529
1384, 2516, 2509, 2508, 2515, 2537, 2530, 2529, 2536
1385, 2510, 2503, 2502, 2509, 2531, 2524, 2523, 2530
1386, 2517, 2510, 2509, 2516, 2538, 2531, 2530, 2537
1387, 2511, 2504, 2503, 2510, 2532, 2525, 2524, 2531
1388, 2518, 2511, 2510, 2517, 2539, 2532, 2531, 2538
1389, 2512, 2505, 2504, 2511, 2533, 2526, 2525, 2532
1390, 2519, 2512, 2511, 2518, 2540, 2533, 2532, 2539
1391, 2513, 2506, 2505, 2512, 2534, 2527, 2526, 2533
1392, 2520, 2513, 2512, 2519, 2541, 2534, 2533, 2540
1393, 2529, 2522, 2521, 2528, 2550, 2543, 2542, 2549
1394, 2536, 2529, 2528, 2535, 2557, 2550, 2549, 2556
1395, 2530, 2523, 2522, 2529, 2551, 2544, 2543, 2550
1396, 2537, 2530, 2529, 2536, 2558, 2551, 2550, 2557
1397, 2531, 2524, 2523, 2530, 2552, 2545, 2544, 2551
1398, 2538, 2531, 2530, 2537, 2559, 2552, 2551, 2558
1399, 2532, 2525, 2524, 2531, 2553, 2546, 2545, 2552
1400, 2539, 2532, 2531, 2538, 2560, 2553, 2552, 2559
1401, 2533, 2526, 2525, 2532, 2554, 2547, 2546, 2553
1402, 2540, 2533, 2532, 2539, 2561, 2554, 2553, 2560
1403, 2534, 2527, 2526, 2533, 2555, 2548, 2547, 2554
1404, 2541, 2534, 2533, 2540, 2562, 2555, 2554, 2561
1405, 2550, 2543, 2542, 2549, 2571, 2564, 2563, 2570
1406, 2557, 2550, 2549, 2556, 2578, 2571, 2570, 2577
1407, 2551, 2544, 2543, 2550, 2572, 2565, 2564, 2571
1408, 2558, 2551, 2550, 2557, 2579, 2572, 2571, 2578
1409, 2552, 2545, 2544, 2551, 2573, 2566, 2565, 2572
1410, 2559, 2552, 2551, 2558, 2580, 2573, 2572, 2579
1411, 2553, 2546, 2545, 2552, 2574, 2567, 2566, 2573
1412, 2560, 2553, 2552, 2559, 2581, 2574, 2573, 2580
1413, 2554, 2547, 2546, 2553, 2575, 2568, 2567, 2574
1414, 2561, 2554, 2553, 2560, 2582, 2575, 2574, 2581
1415, 2555, 2548, 2547, 2554, 2576, 2569, 2568, 2575
1416, 2562, 2555, 2554, 2561, 2583, 2576, 2575, 2582
1417, 2571, 2564, 2563, 2570, 2592, 2585, 2584, 2591
1418, 2578, 2571, 2570, 2577, 2599, 2592, 2591, 2598
1419, 2572, 2565, 2564, 2571, 2593, 2586, 2585, 2592
1420, 2579, 2572, 2571, 2578, 2600, 2593, 2592, 2599
1421, 2573, 2566, 2565, 2572, 2594, 2587, 2586, 2593
1422, 2580, 2573, 2572, 2579, 2601, 2594, 2593, 2600
1423, 2574, 2567, 2566, 2573, 2595, 2588, 2587, 2594
1424, 2581, 2574, 2573, 2580, 2602, 2595, 2594, 2601
1425, 2575, 2568, 2567, 2574, 2596, 2589, 2588, 2595
1426, 2582, 2575, 2574, 2581, 2603, 2596, 2595, 2602
1427, 2576, 2569, 2568, 2575, 2597, 2590, 2589, 2596
1428, 2583, 2576, 2575, 2582, 2604, 2597, 2596, 2603
1429, 2592, 2585, 2584, 2591, 2613, 2606, 2605, 2612
1430, 2599, 2592, 2591, 2598, 2620, 2613, 2612, 2619
1431, 2593, 2586, 2585, 2592, 2614, 2607, 2606, 2613
1432, 2600, 2593, 2592, 2599, 2621, 2614, 2613, 2620
1433, 2594, 2587, 2586, 2593, 2615, 2608, 2607, 2614
1434, 2601, 2594, 2593, 2600, 2622, 2615, 2614, 2621
1435, 2595, 2588, 2587, 2594, 2616, 2609, 2608, 2615
1436, 2602, 2595, 2594, 2601, 2623, 2616, 2615, 2622
1437, 2596, 2589, 2588, 2595, 2617, 2610, 2609, 2616
1438, 2603, 2596, 2595, 2602, 2624, 2617, 2616, 2623
1439, 2597, 2590, 2589, 2596, 2618, 2611, 2610, 2617
1440, 2604, 2597, 2596, 2603, 2625, 2618, 2617, 2624
1441, 2613, 2606, 2605, 2612, 2634, 2627, 2626, 2633
1442, 2620, 2613, 2612, 2619, 2641, 2634, 2633, 2640
1443, 2614, 2607, 2606, 2613, 2635, 2628, 2627, 2634
1444, 2621, 2614, 2613, 2620, 2642, 2635, 2634, 2641
1445, 2615, 2608, 2607, 2614, 2636, 2629, 2628, 2635
1446, 2622, 2615, 2614, 2621, 2643, 2636, 2635, 2642
1447, 2616, 2609, 2608, 2615, 2637, 2630, 2629, 2636
1448, 2623, 2616, 2615, 2622, 2644, 2637, 2636, 2643
1449, 2617, 2610, 2609, 2616, 2638, 2631, 2630, 2637
1450, 2624, 2617, 2616, 2623, 2645, 2638, 2637, 2644
1451, 2618, 2611, 2610, 2617, 2639, 2632, 2631, 2638
1452, 2625, 2618, 2617, 2624, 2646, 2639, 2638, 2645
1453, 2634, 2627, 2626, 2633, 2655, 2648, 2647, 2654
1454, 2641, 2634, 2633, 2640, 2662, 2655, 2654, 2661
1455, 2635, 2628, 2627, 2634, 2656, 2649, 2648, 2655
1456, 2642, 2635, 2634, 2641, 2663, 2656, 2655, 2662
1457, 2636, 2629, 2628, 2635, 2657, 2650, 2649, 2656
1458, 2643, 2636, 2635, 2642, 2664, 2657, 2656, 2663
1459, 2637, 2630, 2629, 2636, 2658, 2651, 2650, 2657
1460, 2644, 2637, 2636, 2643, 2665, 2658, 2657, 2664
1461, 2638, 2631, 2630, 2637, 2659, 2652, 2651, 2658
1462, 2645, 2638, 2637, 2644, 2666, 2659, 2658, 2665
1463, 2639, 2632, 2631, 2638, 2660, 2653, 2652, 2659
1464, 2646, 2639, 2638, 2645, 2667, 2660, 2659, 2666
1465, 2655, 2648, 2647, 2654, 2676, 2669, 2668, 2675
1466, 2662, 2655, 2654, 2661, 2683, 2676, 2675, 2682
1467, 2656, 2649, 2648, 2655, 2677, 2670, 2669, 2676
1468, 2663, 2656, 2655, 2662, 2684, 2677, 2676, 2683
1469, 2657, 2650, 2649, 2656, 2678, 2671, 2670, 2677
1470, 2664, 2657, 2656, 2663, 2685, 2678, 2677, 2684
1471, 2658, 2651, 2650, 2657, 2679, 2672, 2671, 2678
1472, 2665, 2658, 2657, 2664, 2686, 2679, 2678, 2685
1473, 2659, 2652, 2651, 2658, 2680, 2673, 2672, 2679
1474, 2666, 2659, 2658, 2665, 2687, 2680, 2679, 2686
1475, 2660, 2653, 2652, 2659, 2681, 2674, 2673, 2680
1476, 2667, 2660, 2659, 2666, 2688, 2681, 2680, 2687
1477, 2676, 2669, 2668, 2675, 2697, 2690, 2689, 2696
1478, 2683, 2676, 2675, 2682, 2704, 2697, 2696, 2703
1479, 2677, 2670, 2669, 2676, 2698, 2691, 2690, 2697
1480, 2684, 2677, 2676, 2683, 2705, 2698, 2697, 2704
1481, 2678, 2671, 2670, 2677, 2699, 2692, 2691, 2698
1482, 2685, 2678, 2677, 2684, 2706, 2699, 2698, 2705
1483, 2679, 2672, 2671, 2678, 2700, 2693, 2692, 2699
1484, 2686, 2679, 2678, 2685, 2707, 2700, 2699, 2706
1485, 2680, 2673, 2672, 2679, 2701, 2694, 2693, 2700
1486, 2687, 2680, 2679, 2686, 2708, 2701, 2700, 2707
1487, 2681, 2674, 2673, 2680, 2702, 2695, 2694, 2701
1488, 2688, 2681, 2680, 2687, 2709, 2702, 2701, 2708
1489, 2697, 2690, 2689, 2696, 2718, 2711, 2710, 2717
1490, 2704, 2697, 2696, 2703, 2725, 2718, 2717, 2724
1491, 2698, 2691, 2690, 2697, 2719, 2712, 2711, 2718
1492, 2705, 2698, 2697, 2704, 2726, 2719, 2718, 2725
1493, 2699, 2692, 2691, 2698, 2720, 2713, 2712, 2719
1494, 2706, 2699, 2698, 2705, 2727, 2720, 2719, 2726
1495, 2700, 2693, 2692, 2699, 2721, 2714, 2713, 2720
1496, 2707, 2700, 2699, 2706, 2728, 2721, 2720, 2727
1497, 2701, 2694, 2693, 2700, 2722, 2715, 2714, 2721
1498, 2708, 2701, 2700, 2707, 2729, 2722, 2721, 2728
1499, 2702, 2695, 2694, 2701, 2723, 2716, 2715, 2722
1500, 2709, 2702, 2701, 2708, 2730, 2723, 2722, 2729
1501, 2718, 2711, 2710, 2717, 2739, 2732, 2731, 2738
1502, 2725, 2718, 2717, 2724, 2746, 2739, 2738, 2745
1503, 2719, 2712, 2711, 2718, 2740, 2733, 2732, 2739
1504, 2726, 2719, 2718, 2725, 2747, 2740, 2739, 2746
1505, 2720, 2713, 2712, 2719, 2741, 2734, 2733, 2740
1506, 2727, 2720, 2719, 2726, 2748, 2741, 2740, 2747
1507, 2721, 2714, 2713, 2720, 2742, 2735, 2734, 2741
1508, 2728, 2721, 2720, 2727, 2749, 2742, 2741, 2748
1509, 2722, 2715, 2714, 2721, 2743, 2736, 2735, 2742
1510, 2729, 2722, 2721, 2728, 2750, 2743, 2742, 2749
1511, 2723, 2716, 2715, 2722, 2744, 2737, 2736, 2743
1512, 2730, 2723, 2722, 2729, 2751, 2744, 2743, 2750
1513, 2739, 2732, 2731, 2738, 2760, 2753, 2752, 2759
1514, 2746, 2739, 2738, 2745, 2767, 2760, 2759, 2766
1515, 2740, 2733, 2732, 2739, 2761, 2754, 2753, 2760
1516, 2747, 2740, 2739, 2746, 2768, 2761, 2760, 2767
1517, 2741, 2734, 2733, 2740, 2762, 2755, 2754, 2761
1518, 2748, 2741, 2740, 2747, 2769, 2762, 2761, 2768
1519, 2742, 2735, 2734, 2741, 2763, 2756, 2755, 2762
1520, 2749, 2742, 2741, 2748, 2770, 2763, 2762, 2769
1521, 2743, 2736, 2735, 2742, 2764, 2757, 2756, 2763
1522, 2750, 2743, 2742, 2749, 2771, 2764, 2763, 2770
1523, 2744, 2737, 2736, 2743, 2765, 2758, 2757, 2764
1524, 2751, 2744, 2743, 2750, 2772, 2765, 2764, 2771
1525, 2760, 2753, 2752, 2759, 2781, 2774, 2773, 2780
1526, 2767, 2760, 2759, 2766, 2788, 2781, 2780, 2787
1527, 2761, 2754, 2753, 2760, 2782, 2775, 2774, 2781
1528, 2768, 2761, 2760, 2767, 2789, 2782, 2781, 2788
1529, 2762, 2755, 2754, 2761, 2783, 2776, 2775, 2782
1530, 2769, 2762, 2761, 2768, 2790, 2783, 2782, 2789
1531, 2763, 2756, 2755, 2762, 2784, 2777, 2776, 2783
1532, 2770, 2763, 2762, 2769, 2791, 2784, 2783, 2790
1533, 2764, 2757, 2756, 2763, 2785, 2778, 2777, 2784
1534, 2771, 2764, 2763, 2770, 2792, 2785, 2784, 2791
1535, 2765, 2758, 2757, 2764, 2786, 2779, 2778, 2785
1536, 2772, 2765, 2764, 2771, 2793, 2786, 2785, 2792
1537, 2781, 2774, 2773, 2780, 2802, 2795, 2794, 2801
1538, 2788, 2781, 2780, 2787, 2809, 2802, 2801, 2808
1539, 2782, 2775, 2774, 2781, 2803, 2796, 2795, 2802
1540, 2789, 2782, 2781, 2788, 2810, 2803, 2802, 2809
1541, 2783, 2776, 2775, 2782, 2804, 2797, 2796, 2803
1542, 2790, 2783, 2782, 2789, 2811, 2804, 2803, 2810
1543, 2784, 2777, 2776, 2783, 2805, 2798, 2797, 2804
1544, 2791, 2784, 2783, 2790, 2812, 2805, 2804, 2811
1545, 2785, 2778, 2777, 2784, 2806, 2799, 2798, 2805
1546, 2792, 2785, 2784, 2791, 2813, 2806, 2805, 2812
1547, 2786, 2779, 2778, 2785, 2807, 2800, 2799, 2806
1548, 2793, 2786, 2785, 2792, 2814, 2807, 2806, 2813
1549, 2802, 2795, 2794, 2801, 2823, 2816, 2815, 2822
1550, 2809, 2802, 2801, 2808, 2830, 2823, 2822, 2829
1551, 2803, 2796, 2795, 2802, 2824, 2817, 2816, 2823
1552, 2810, 2803, 2802, 2809, 2831, 2824, 2823, 2830
1553, 2804, 2797, 2796, 2803, 2825, 2818, 2817, 2824
1554, 2811, 2804, 2803, 2810, 2832, 2825, 2824, 2831
1555, 2805, 2798, 2797, 2804, 2826, 2819, 2818, 2825
1556, 2812, 2805, 2804, 2811, 2833, 2826, 2825, 2832
1557, 2806, 2799, 2798, 2805, 2827, 2820, 2819, 2826
1558, 2813, 2806, 2805, 2812, 2834, 2827, 2826, 2833
1559, 2807, 2800, 2799, 2806, 2828, 2821, 2820, 2827
1560, 2814, 2807, 2806, 2813, 2835, 2828, 2827, 2834
1561, 2823, 2816, 2815, 2822, 2844, 2837, 2836, 2843
1562, 2830, 2823, 2822, 2829, 2851, 2844, 2843, 2850
1563, 2824, 2817, 2816, 2823, 2845, 2838, 2837, 2844
1564, 2831, 2824, 2823, 2830, 2852, 2845, 2844, 2851
1565, 2825, 2818, 2817, 2824, 2846, 2839, 2838, 2845
1566, 2832, 2825, 2824, 2831, 2853, 2846, 2845, 2852
1567, 2826, 2819, 2818, 2825, 2847, 2840, 2839, 2846
1568, 2833, 2826, 2825, 2832, 2854, 2847, 2846, 2853
1569, 2827, 2820, 2819, 2826, 2848, 2841, 2840, 2847
1570, 2834, 2827, 2826, 2833, 2855, 2848, 2847, 2854
1571, 2828, 2821, 2820, 2827, 2849, 2842, 2841, 2848
1572, 2835, 2828, 2827, 2834, 2856, 2849, 2848, 2855
1573, 2844, 2837, 2836, 2843, 2865, 2858, 2857, 2864
1574, 2851, 2844, 2843, 2850, 2872, 2865, 2864, 2871
1575, 2845, 2838, 2837, 2844, 2866, 2859, 2858, 2865
1576, 2852, 2845, 2844, 2851, 2873, 2866, 2865, 2872
1577, 2846, 2839, 2838, 2845, 2867, 2860, 2859, 2866
1578, 2853, 2846, 2845, 2852, 2874, 2867, 2866, 2873
1579, 2847, 2840, 2839, 2846, 2868, 2861, 2860, 2867
1580, 2854, 2847, 2846, 2853, 2875, 2868, 2867, 2874
1581, 2848, 2841, 2840, 2847, 2869, 2862, 2861, 2868
1582, 2855, 2848, 2847, 2854, 2876, 2869, 2868, 2875
1583, 2849, 2842, 2841, 2848, 2870, 2863, 2862, 2869
1584, 2856, 2849, 2848, 2855, 2877, 2870, 2869, 2876
1585, 2865, 2858, 2857, 2864, 2886, 2879, 2878, 2885
1586, 2872, 2865, 2864, 2871, 2893, 2886, 2885, 2892
1587, 2866, 2859, 2858, 2865, 2887, 2880, 2879, 2886
1588, 2873, 2866, 2865, 2872, 2894, 2887, 2886, 2893
1589, 2867, 2860, 2859, 2866, 2888, 2881, 2880, 2887
1590, 2874, 2867, 2866, 2873, 2895, 2888, 2887, 2894
1591, 2868, 2861, 2860, 2867, 2889, 2882, 2881, 2888
1592, 2875, 2868, 2867, 2874, 2896, 2889, 2888, 2895
1593, 2869, 2862, 2861, 2868, 2890, 2883, 2882, 2889
1594, 2876, 2869, 2868, 2875, 2897, 2890, 2889, 2896
1595, 2870, 2863, 2862, 2869, 2891, 2884, 2883, 2890
1596, 2877, 2870, 2869, 2876, 2898, 2891, 2890, 2897
1597, 2886, 2879, 2878, 2885, 2907, 2900, 2899, 2906
1598, 2893, 2886, 2885, 2892, 2914, 2907, 2906, 2913
1599, 2887, 2880, 2879, 2886, 2908, 2901, 2900, 2907
1600, 2894, 2887, 2886, 2893, 2915, 2908, 2907, 2914
1601, 2888, 2881, 2880, 2887, 2909, 2902, 2901, 2908
1602, 2895, 2888, 2887, 2894, 2916, 2909, 2908, 2915
1603, 2889, 2882, 2881, 2888, 2910, 2903, 2902, 2909
1604, 2896, 2889, 2888, 2895, 2917, 2910, 2909, 2916
1605, 2890, 2883, 2882, 2889, 2911, 2904, 2903, 2910
1606, 2897, 2890, 2889, 2896, 2918, 2911, 2910, 2917
1607, 2891, 2884, 2883, 2890, 2912, 2905, 2904, 2911
1608, 2898, 2891, 2890, 2897, 2919, 2912, 2911, 2918
1609, 2907, 2900, 2899, 2906, 2928, 2921, 2920, 2927
1610, 2914, 2907, 2906, 2913, 2935, 2928, 2927, 2934
1611, 2908, 2901, 2900, 2907, 2929, 2922, 2921, 2928
1612, 2915, 2908, 2907, 2914, 2936, 2929, 2928, 2935
1613, 2909, 2902, 2901, 2908, 2930, 2923, 2922, 2929
1614, 2916, 2909, 2908, 2915, 2937, 2930, 2929, 2936
1615, 2910, 2903, 2902, 2909, 2931, 2924, 2923, 2930
1616, 2917, 2910, 2909, 2916, 2938, 2931, 2930, 2937
1617, 2911, 2904, 2903, 2910, 2932, 2925, 2924, 2931
1618, 2918, 2911, 2910, 2917, 2939, 2932, 2931, 2938
1619, 2912, 2905, 2904, 2911, 2933, 2926, 2925, 2932
1620, 2919, 2912, 2911, 2918, 2940, 2933, 2932, 2939
1621, 2949, 2942, 2941, 2948, 2970, 2963, 2962, 2969
1622, 2956, 2949, 2948, 2955, 2977, 2970, 2969, 2976
1623, 2950, 2943, 2942, 2949, 2971, 2964, 2963, 2970
1624, 2957, 2950, 2949, 2956, 2978, 2971, 2970, 2977
1625, 2951, 2944, 2943, 2950, 2972, 2965, 2964, 2971
1626, 2958, 2951, 2950, 2957, 2979, 2972, 2971, 2978
1627, 2952, 2945, 2944, 2951, 2973, 2966, 2965, 2972
1628, 2959, 2952, 2951, 2958, 2980, 2973, 2972, 2979
1629, 2953, 2946, 2945, 2952, 2974, 2967, 2966, 2973
1630, 2960, 2953, 2952, 2959, 2981, 2974, 2973, 2980
1631, 2954, 2947, 2946, 2953, 2975, 2968, 2967, 2974
1632, 2961, 2954, 2953, 2960, 2982, 2975, 2974, 2981
1633, 2970, 2963, 2962, 2969, 2991, 2984, 2983, 2990
1634, 2977, 2970, 2969, 2976, 2998, 2991, 2990, 2997
1635, 2971, 2964, 2963, 2970, 2992, 2985, 2984, 2991
1636, 2978, 2971, 2970, 2977, 2999, 2992, 2991, 2998
1637, 2972, 2965, 2964, 2971, 2993, 2986, 2985, 2992
1638, 2979, 2972, 2971, 2978, 3000, 2993, 2992, 2999
1639, 2973, 2966, 2965, 2972, 2994, 2987, 2986, 2993
1640, 2980, 2973, 2972, 2979, 3001, 2994, 2993, 3000
1641, 2974, 2967, 2966, 2973, 2995, 2988, 2987, 2994
1642, 2981, 2974, 2973, 2980, 3002, 2995, 2994, 3001
1643, 2975, 2968, 2967, 2974, 2996, 2989, 2988, 2995
1644, 2982, 2975, 2974, 2981, 3003, 2996, 2995, 3002
1645, 2991, 2984, 2983, 2990, 3012, 3005, 3004, 3011
1646, 2998, 2991, 2990, 2997, 3019, 3012, 3011, 3018
1647, 2992, 2985, 2984, 2991, 3013, 3006, 3005, 3012
1648, 2999, 2992, 2991, 2998, 3020, 3013, 3012, 3019
1649, 2993, 2986, 2985, 2992, 3014, 3007, 3006, 3013
1650, 3000, 2993, 2992, 2999, 3021, 3014, 3013, 3020
1651, 2994, 2987, 2986, 2993, 3015, 3008, 3007, 3014
1652, 3001, 2994, 2993, 3000, 3022, 3015, 3014, 3021
1653, 2995, 2988, 2987, 2994, 3016, 3009, 3008, 3015
1654, 3002, 2995, 2994, 3001, 3023, 3016, 3015, 3022
1655, 2996, 2989, 2988, 2995, 3017, 3010, 3009, 3016
1656, 3003, 2996, 2995, 3002, 3024, 3017, 3016, 3023
1657, 3012, 3005, 3004, 3011, 3033, 3026, 3025, 3032
1658, 3019, 3012, 3011, 3018, 3040, 3033, 3032, 3039
1659, 3013, 3006, 3005, 3012, 3034, 3027, 3026, 3033
1660, 3020, 3013, 3012, 3019, 3041, 3034, 3033, 3040
1661, 3014, 3007, 3006, 3013, 3035, 3028, 3027, 3034
1662, 3021, 3014, 3013, 3020, 3042, 3035, 3034, 3041
1663, 3015, 3008, 3007, 3014, 3036, 3029, 3028, 3035
1664, 3022, 3015, 3014, 3021, 3043, 3036, 3035, 3042
1665, 3016, 3009, 3008, 3015, 3037, 3030, 3029, 3036
1666, 3023, 3016, 3015, 3022, 3044, 3037, 3036, 3043
1667, 3017, 3010, 3009, 3016, 3038, 3031, 3030, 3037
1668, 3024, 3017, 3016, 3023, 3045, 3038, 3037, 3044
1669, 3033, 3026, 3025, 3032, 3054, 3047, 3046, 3053
1670, 3040, 3033, 3032, 3039, 3061, 3054, 3053, 3060
1671, 3034, 3027, 3026, 3033, 3055, 3048, 3047, 3054
1672, 3041, 3034, 3033, 3040, 3062, 3055, 3054, 3061
1673, 3035, 3028, 3027, 3034, 3056, 3049, 3048, 3055
1674, 3042, 3035, 3034, 3041, 3063, 3056, 3055, 3062
1675, 3036, 3029, 3028, 3035, 3057, 3050, 3049, 3056
1676, 3043, 3036, 3035, 3042, 3064, 3057, 3056, 3063
1677, 3037, 3030, 3029, 3036, 3058, 3051, 3050, 3057
1678, 3044, 3037, 3036, 3043, 3065, 3058, 3057, 3064
1679, 3038, 3031, 3030, 3037, 3059, 3052, 3051, 3058
1680, 3045, 3038, 3037, 3044, 3066, 3059, 3058, 3065
1681, 3054, 3047, 3046, 3053, 3075, 3068, 3067, 3074
1682, 3061, 3054, 3053, 3060, 3082, 3075, 3074, 3081
1683, 3055, 3048, 3047, 3054, 3076, 3069, 3068, 3075
1684, 3062, 3055, 3054, 3061, 3083, 3076, 3075, 3082
1685, 3056, 3049, 3048, 3055, 3077, 3070, 3069, 3076
1686, 3063, 3056, 3055, 3062, 3084, 3077, 3076, 3083
1687, 3057, 3050, 3049, 3056, 3078, 3071, 3070, 3077
1688, 3064, 3057, 3056, 3063, 3085, 3078, 3077, 3084
1689, 3058, 3051, 3050, 3057, 3079, 3072, 3071, 3078
1690, 3065, 3058, 3057, 3064, 3086, 3079, 3078, 3085
1691, 3059, 3052, 3051, 3058, 3080, 3073, 3072, 3079
1692, 3066, 3059, 3058, 3065, 3087, 3080, 3079, 3086
1693, 3075, 3068, 3067, 3074, 3096, 3089, 3088, 3095
1694, 3082, 3075, 3074, 3081, 3103, 3096, 3095, 3102
1695, 3076, 3069, 3068, 3075, 3097, 3090, 3089, 3096
1696, 3083, 3076, 3075, 3082, 3104, 3097, 3096, 3103
1697, 3077, 3070, 3069, 3076, 3098, 3091, 3090, 3097
1698, 3084, 3077, 3076, 3083, 3105, 3098, 3097, 3104
1699, 3078, 3071, 3070, 3077, 3099, 3092, 3091, 3098
1700, 3085, 3078, 3077, 3084, 3106, 3099, 3098, 3105
1701, 3079, 3072, 3071, 3078, 3100, 3093, 3092, 3099
1702, 3086, 3079, 3078, 3085, 3107, 3100, 3099, 3106
1703, 3080, 3073, 3072, 3079, 3101, 3094, 3093, 3100
1704, 3087, 3080, 3079, 3086, 3108, 3101, 3100, 3107
1705, 3096, 3089, 3088, 3095, 3117, 3110, 3109, 3116
1706, 3103, 3096, 3095, 3102, 3124, 3117, 3116, 3123
1707, 3097, 3090, 3089, 3096, 3118, 3111, 3110, 3117
1708, 3104, 3097, 3096, 3103, 3125, 3118, 3117, 3124
1709, 3098, 3091, 3090, 3097, 3119, 3112, 3111, 3118
1710, 3105, 3098, 3097, 3104, 3126, 3119, 3118, 3125
1711, 3099, 3092, 3091, 3098, 3120, 3113, 3112, 3119
1712, 3106, 3099, 3098, 3105, 3127, 3120, 3119, 3126
1713, 3100, 3093, 3092, 3099, 3121, 3114, 3113, 3120
1714, 3107, 3100, 3099, 3106, 3128, 3121, 3120, 3127
1715, 3101, 3094, 3093, 3100, 3122, 3115, 3114, 3121
1716, 3108, 3101, 3100, 3107, 3129, 3122, 3121, 3128
1717, 3117, 3110, 3109, 3116, 3138, 3131, 3130, 3137
1718, 3124, 3117, 3116, 3123, 3145, 3138, 3137, 3144
1719, 3118, 3111, 3110, 3117, 3139, 3132, 3131, 3138
1720, 3125, 3118, 3117, 3124, 3146, 3139, 3138, 3145
1721, 3119, 3112, 3111, 3118, 3140, 3133, 3132, 3139
1722, 3126, 3119, 3118, 3125, 3147, 3140, 3139, 3146
1723, 3120, 3113, 3112, 3119, 3141, 3134, 3133, 3140
1724, 3127, 3120, 3119, 3126, 3148, 3141, 3140, 3147
1725, 3121, 3114, 3113, 3120, 3142, 3135, 3134, 3141
1726, 3128, 3121, 3120, 3127, 3149, 3142, 3141, 3148
1727, 3122, 3115, 3114, 3121, 3143, 3136, 3135, 3142
1728, 3129, 3122, 3121, 3128, 3150, 3143, 3142, 3149
1729, 3138, 3131, 3130, 3137, 3159, 3152, 3151, 3158
1730, 3145, 3138, 3137, 3144, 3166, 3159, 3158, 3165
1731, 3139, 3132, 3131, 3138, 3160, 3153, 3152, 3159
1732, 3146, 3139, 3138, 3145, 3167, 3160, 3159, 3166
1733, 3140, 3133, 3132, 3139, 3161, 3154, 3153, 3160
1734, 3147, 3140, 3139, 3146, 3168, 3161, 3160, 3167
1735, 3141, 3134, 3133, 3140, 3162, 3155, 3154, 3161
1736, 3148, 3141, 3140, 3147, 3169, 3162, 3161, 3168
1737, 3142, 3135, 3134, 3141, 3163, 3156, 3155, 3162
1738, 3149, 3142, 3141, 3148, 3170, 3163, 3162, 3169
1739, 3143, 3136, 3135, 3142, 3164, 3157, 3156, 3163
1740, 3150, 3143, 3142, 3149, 3171, 3164, 3163, 3170
1741, 3159, 3152, 3151, 3158, 3180, 3173, 3172, 3179
1742, 3166, 3159, 3158, 3165, 3187, 3180, 3179, 3186
1743, 3160, 3153, 3152, 3159, 3181, 3174, 3173, 3180
1744, 3167, 3160, 3159, 3166, 3188, 3181, 3180, 3187
1745, 3161, 3154, 3153, 3160, 3182, 3175, 3174, 3181
1746, 3168, 3161, 3160, 3167, 3189, 3182, 3181, 3188
1747, 3162, 3155, 3154, 3161, 3183, 3176, 3175, 3182
1748, 3169, 3162, 3161, 3168, 3190, 3183, 3182, 3189
1749, 3163, 3156, 3155, 3162, 3184, 3177, 3176, 3183
1750, 3170, 3163, 3162, 3169, 3191, 3184, 3183, 3190
1751, 3164, 3157, 3156, 3163, 3185, 3178, 3177, 3184
1752, 3171, 3164, 3163, 3170, 3192, 3185, 3184, 3191
1753, 3180, 3173, 3172, 3179, 3201, 3194, 3193, 3200
1754, 3187, 3180, 3179, 3186, 3208, 3201, 3200, 3207
1755, 3181, 3174, 3173, 3180, 3202, 3195, 3194, 3201
1756, 3188, 3181, 3180, 3187, 3209, 3202, 3201, 3208
1757, 3182, 3175, 3174, 3181, 3203, 3196, 3195, 3202
1758, 3189, 3182, 3181, 3188, 3210, 3203, 3202, 3209
1759, 3183, 3176, 3175, 3182, 3204, 3197, 3196, 3203
1760, 3190, 3183, 3182, 3189, 3211, 3204, 3203, 3210
1761, 3184, 3177, 3176, 3183, 3205, 3198, 3197, 3204
1762, 3191, 3184, 3183, 3190, 3212, 3205, 3204, 3211
1763, 3185, 3178, 3177, 3184, 3206, 3199, 3198, 3205
1764, 3192, 3185, 3184, 3191, 3213, 3206, 3205, 3212
1765, 3201, 3194, 3193, 3200, 3222, 3215, 3214, 3221
1766, 3208, 3201, 3200, 3207, 3229, 3222, 3221, 3228
1767, 3202, 3195, 3194, 3201, 3223, 3216, 3215, 3222
1768, 3209, 3202, 3201, 3208, 3230, 3223, 3222, 3229
1769, 3203, 3196, 3195, 3202, 3224, 3217, 3216, 3223
1770, 3210, 3203, 3202, 3209, 3231, 3224, 3223, 3230
1771, 3204, 3197, 3196, 3203, 3225, 3218, 3217, 3224
1772, 3211, 3204, 3203, 3210, 3232, 3225, 3224, 3231
1773, 3205, 3198, 3197, 3204, 3226, 3219, 3218, 3225
1774, 3212, 3205, 3204, 3211, 3233, 3226, 3225, 3232
1775, 3206, 3199, 3198, 3205, 3227, 3220, 3219, 3226
1776, 3213, 3206, 3205, 3212, 3234, 3227, 3226, 3233
1777, 3222, 3215, 3214, 3221, 3243, 3236, 3235, 3242
1778, 3229, 3222, 3221, 3228, 3250, 3243, 3242, 3249
1779, 3223, 3216, 3215, 3222, 3244, 3237, 3236, 3243
1780, 3230, 3223, 3222, 3229, 3251, 3244, 3243, 3250
1781, 3224, 3217, 3216, 3223, 3245, 3238, 3237, 3244
1782, 3231, 3224, 3223, 3230, 3252, 3245, 3244, 3251
1783, 3225, 3218, 3217, 3224, 3246, 3239, 3238, 3245
1784, 3232, 3225, 3224, 3231, 3253, 3246, 3245, 3252
1785, 3226, 3219, 3218, 3225, 3247, 3240, 3239, 3246
1786, 3233, 3226, 3225, 3232, 3254, 3247, 3246, 3253
1787, 3227, 3220, 3219, 3226, 3248, 3241, 3240, 3247
1788, 3234, 3227, 3226, 3233, 3255, 3248, 3247, 3254
1789, 3243, 3236, 3235, 3242, 3264, 3257, 3256, 3263
1790, 3250, 3243, 3242, 3249, 3271, 3264, 3263, 3270
1791, 3244, 3237, 3236, 3243, 3265, 3258, 3257, 3264
1792, 3251, 3244, 3243, 3250, 3272, 3265, 3264, 3271
1793, 3245, 3238, 3237, 3244, 3266, 3259, 3258, 3265
1794, 3252, 3245, 3244, 3251, 3273, 3266, 3265, 3272
1795, 3246, 3239, 3238, 3245, 3267, 3260, 3259, 3266
1796, 3253, 3246, 3245, 3252, 3274, 3267, 3266, 3273
1797, 3247, 3240, 3239, 3246, 3268, 3261, 3260, 3267
1798, 3254, 3247, 3246, 3253, 3275, 3268, 3267, 3274
1799, 3248, 3241, 3240, 3247, 3269, 3262, 3261, 3268
1800, 3255, 3248, 3247, 3254, 3276, 3269, 3268, 3275
1801, 3264, 3257, 3256, 3263, 3285, 3278, 3277, 3284
1802, 3271, 3264, 3263, 3270, 3292, 3285, 3284, 3291
1803, 3265, 3258, 3257, 3264, 3286, 3279, 3278, 3285
1804, 3272, 3265, 3264, 3271, 3293, 3286, 3285, 3292
1805, 3266, 3259, 3258, 3265, 3287, 3280, 3279, 3286
1806, 3273, 3266, 3265, 3272, 3294, 3287, 3286, 3293
1807, 3267, 3260, 3259, 3266, 3288, 3281, 3280, 3287
1808, 3274, 3267, 3266, 3273, 3295, 3288, 3287, 3294
1809, 3268, 3261, 3260, 3267, 3289, 3282, 3281, 3288
1810, 3275, 3268, 3267, 3274, 3296, 3289, 3288, 3295
1811, 3269, 3262, 3261, 3268, 3290, 3283, 3282, 3289
1812, 3276, 3269, 3268, 3275, 3297, 3290, 3289, 3296
1813, 3285, 3278, 3277, 3284, 3306, 3299, 3298, 3305
1814, 3292, 3285, 3284, 3291, 3313, 3306, 3305, 3312
1815, 3286, 3279, 3278, 3285, 3307, 3300, 3299, 3306
1816, 3293, 3286, 3285, 3292, 3314, 3307, 3306, 3313
1817, 3287, 3280, 3279, 3286, 3308, 3301, 3300, 3307
1818, 3294, 3287, 3286, 3293, 3315, 3308, 3307, 3314
1819, 3288, 3281, 3280, 3287, 3309, 3302, 3301, 3308
1820, 3295, 3288, 3287, 3294, 3316, 3309, 3308, 3315
1821, 3289, 3282, 3281, 3288, 3310, 3303, 3302, 3309
1822, 3296, 3289, 3288, 3295, 3317, 3310, 3309, 3316
1823, 3290, 3283, 3282, 3289, 3311, 3304, 3303, 3310
1824, 3297, 3290, 3289, 3296, 3318, 3311, 3310, 3317
1825, 3306, 3299, 3298, 3305, 3327, 3320, 3319, 3326
1826, 3313, 3306, 3305, 3312, 3334, 3327, 3326, 3333
1827, 3307, 3300, 3299, 3306, 3328, 3321, 3320, 3327
1828, 3314, 3307, 3306, 3313, 3335, 3328, 3327, 3334
1829, 3308, 3301, 3300, 3307, 3329, 3322, 3321, 3328
1830, 3315, 3308, 3307, 3314, 3336, 3329, 3328, 3335
1831, 3309, 3302, 3301, 3308, 3330, 3323, 3322, 3329
1832, 3316, 3309, 3308, 3315, 3337, 3330, 3329, 3336
1833, 3310, 3303, 3302, 3309, 3331, 3324, 3323, 3330
1834, 3317, 3310, 3309, 3316, 3338, 3331, 3330, 3337
1835, 3311, 3304, 3303, 3310, 3332, 3325, 3324, 3331
1836, 3318, 3311, 3310, 3317, 3339, 3332, 3331, 3338
1837, 3327, 3320, 3319, 3326, 3348, 3341, 3340, 3347
1838, 3334, 3327, 3326, 3333, 3355, 3348, 3347, 3354
1839, 3328, 3321, 3320, 3327, 3349, 3342, 3341, 3348
1840, 3335, 3328, 3327, 3334, 3356, 3349, 3348, 3355
1841, 3329, 3322, 3321, 3328, 3350, 3343, 3342, 3349
1842, 3336, 3329, 3328, 3335, 3357, 3350, 3349, 3356
1843, 3330, 3323, 3322, 3329, 3351, 3344, 3343, 3350
1844, 3337, 3330, 3329, 3336, 3358, 3351, 3350, 3357
1845, 3331, 3324, 3323, 3330, 3352, 3345, 3344, 3351
1846, 3338, 3331, 3330, 3337, 3359, 3352, 3351, 3358
1847, 3332, 3325, 3324, 3331, 3353, 3346, 3345, 3352
1848, 3339, 3332, 3331, 3338, 3360, 3353, 3352, 3359
1849, 3348, 3341, 3340, 3347, 3369, 3362, 3361, 3368
1850, 3355, 3348, 3347, 3354, 3376, 3369, 3368, 3375
1851, 3349, 3342, 3341, 3348, 3370, 3363, 3362, 3369
1852, 3356, 3349, 3348, 3355, 3377, 3370, 3369, 3376
1853, 3350, 3343, 3342, 3349, 3371, 3364, 3363, 3370
1854, 3357, 3350, 3349, 3356, 3378, 3371, 3370, 3377
1855, 3351, 3344, 3343, 3350, 3372, 3365, 3364, 3371
1856, 3358, 3351, 3350, 3357, 3379, 3372, 3371, 3378
1857, 3352, 3345, 3344, 3351, 3373, 3366, 3365, 3372
1858, 3359, 3352, 3351, 3358, 3380, 3373, 3372, 3379
1859, 3353, 3346, 3345, 3352, 3374, 3367, 3366, 3373
1860, 3360, 3353, 3352, 3359, 3381, 3374, 3373, 3380
1861, 3369, 3362, 3361, 3368, 3390, 3383, 3382, 3389
1862, 3376, 3369, 3368, 3375, 3397, 3390, 3389, 3396
1863, 3370, 3363, 3362, 3369, 3391, 3384, 3383, 3390
1864, 3377, 3370, 3369, 3376, 3398, 3391, 3390, 3397
1865, 3371, 3364, 3363, 3370, 3392, 3385, 3384, 3391
1866, 3378, 3371, 3370, 3377, 3399, 3392, 3391, 3398
1867, 3372, 3365, 3364, 3371, 3393, 3386, 3385, 3392
1868, 3379, 3372, 3371, 3378, 3400, 3393, 3392, 3399
1869, 3373, 3366, 3365, 3372, 3394, 3387, 3386, 3393
1870, 3380, 3373, 3372, 3379, 3401, 3394, 3393, 3400
1871, 3374, 3367, 3366, 3373, 3395, 3388, 3387, 3394
1872, 3381, 3374, 3373, 3380, 3402, 3395, 3394, 3401
1873, 3390, 3383, 3382, 3389, 3411, 3404, 3403, 3410
1874, 3397, 3390, 3389, 3396, 3418, 3411, 3410, 3417
1875, 3391, 3384, 3383, 3390, 3412, 3405, 3404, 3411
1876, 3398, 3391, 3390, 3397, 3419, 3412, 3411, 3418
1877, 3392, 3385, 3384, 3391, 3413, 3406, 3405, 3412
1878, 3399, 3392, 3391, 3398, 3420, 3413, 3412, 3419
1879, 3393, 3386, 3385, 3392, 3414, 3407, 3406, 3413
1880, 3400, 3393, 3392, 3399, 3421, 3414, 3413, 3420
1881, 3394, 3387, 3386, 3393, 3415, 3408, 3407, 3414
1882, 3401, 3394, 3393, 3400, 3422, 3415, 3414, 3421
1883, 3395, 3388, 3387, 3394, 3416, 3409, 3408, 3415
1884, 3402, 3395, 3394, 3401, 3423, 3416, 3415, 3422
1885, 3411, 3404, 3403, 3410, 3432, 3425, 3424, 3431
1886, 3418, 3411, 3410, 3417, 3439, 3432, 3431, 3438
1887, 3412, 3405, 3404, 3411, 3433, 3426, 3425, 3432
1888, 3419, 3412, 3411, 3418, 3440, 3433, 3432, 3439
1889, 3413, 3406, 3405, 3412, 3434, 3427, 3426, 3433
1890, 3420, 3413, 3412, 3419, 3441, 3434, 3433, 3440
1891, 3414, 3407, 3406, 3413, 3435, 3428, 3427, 3434
1892, 3421, 3414, 3413, 3420, 3442, 3435, 3434, 3441
1893, 3415, 3408, 3407, 3414, 3436, 3429, 3428, 3435
1894, 3422, 3415, 3414, 3421, 3443, 3436, 3435, 3442
1895, 3416, 3409, 3408, 3415, 3437, 3430, 3429, 3436
1896, 3423, 3416, 3415, 3422, 3444, 3437, 3436, 3443
1897, 3432, 3425, 3424, 3431, 3453, 3446, 3445, 3452
1898, 3439, 3432, 3431, 3438, 3460, 3453, 3452, 3459
1899, 3433, 3426, 3425, 3432, 3454, 3447, 3446, 3453
1900, 3440, 3433, 3432, 3439, 3461, 3454, 3453, 3460
1901, 3434, 3427, 3426, 3433, 3455, 3448, 3447, 3454
1902, 3441, 3434, 3433, 3440, 3462, 3455, 3454, 3461
1903, 3435, 3428, 3427, 3434, 3456, 3449, 3448, 3455
1904, 3442, 3435, 3434, 3441, 3463, 3456, 3455, 3462
1905, 3436, 3429, 3428, 3435, 3457, 3450, 3449, 3456
1906, 3443, 3436, 3435, 3442, 3464, 3457, 3456, 3463
1907, 3437, 3430, 3429, 3436, 3458, 3451, 3450, 3457
1908, 3444, 3437, 3436, 3443, 3465, 3458, 3457, 3464
1909, 3453, 3446, 3445, 3452, 3474, 3467, 3466, 3473
1910, 3460, 3453, 3452, 3459, 3481, 3474, 3473, 3480
1911, 3454, 3447, 3446, 3453, 3475, 3468, 3467, 3474
1912, 3461, 3454, 3453, 3460, 3482, 3475, 3474, 3481
1913, 3455, 3448, 3447, 3454, 3476, 3469, 3468, 3475
1914, 3462, 3455, 3454, 3461, 3483, 3476, 3475, 3482
1915, 3456, 3449, 3448, 3455, 3477, 3470, 3469, 3476
1916, 3463, 3456, 3455, 3462, 3484, 3477, 3476, 3483
1917, 3457, 3450, 3449, 3456, 3478, 3471, 3470, 3477
1918, 3464, 3457, 3456, 3463, 3485, 3478, 3477, 3484
1919, 3458, 3451, 3450, 3457, 3479, 3472, 3471, 3478
1920, 3465, 3458, 3457, 3464, 3486, 3479, 3478, 3485
1921, 3474, 3467, 3466, 3473, 3495, 3488, 3487, 3494
1922, 3481, 3474, 3473, 3480, 3502, 3495, 3494, 3501
1923, 3475, 3468, 3467, 3474, 3496, 3489, 3488, 3495
1924, 3482, 3475, 3474, 3481, 3503, 3496, 3495, 3502
1925, 3476, 3469, 3468, 3475, 3497, 3490, 3489, 3496
1926, 3483, 3476, 3475, 3482, 3504, 3497, 3496, 3503
1927, 3477, 3470, 3469, 3476, 3498, 3491, 3490, 3497
1928, 3484, 3477, 3476, 3483, 3505, 3498, 3497, 3504
1929, 3478, 3471, 3470, 3477, 3499, 3492, 3491, 3498
1930, 3485, 3478, 3477, 3484, 3506, 3499, 3498, 3505
1931, 3479, 3472, 3471, 3478, 3500, 3493, 3492, 3499
1932, 3486, 3479, 3478, 3485, 3507, 3500, 3499, 3506
1933, 3495, 3488, 3487, 3494, 3516, 3509, 3508, 3515
1934, 3502, 3495, 3494, 3501, 3523, 3516, 3515, 3522
1935, 3496, 3489, 3488, 3495, 3517, 3510, 3509, 3516
1936, 3503, 3496, 3495, 3502, 3524, 3517, 3516, 3523
1937, 3497, 3490, 3489, 3496, 3518, 3511, 3510, 3517
1938, 3504, 3497, 3496, 3503, 3525, 3518, 3517, 3524
1939, 3498, 3491, 3490, 3497, 3519, 3512, 3511, 3518
1940, 3505, 3498, 3497, 3504, 3526, 3519, 3518, 3525
1941, 3499, 3492, 3491, 3498, 3520, 3513, 3512, 3519
1942, 3506, 3499, 3498, 3505, 3527, 3520, 3519, 3526
1943, 3500, 3493, 3492, 3499, 3521, 3514, 3513, 3520
1944, 3507, 3500, 3499, 3506, 3528, 3521, 3520, 3527
1945, 3537, 3530, 3529, 3536, 3558, 3551, 3550, 3557
1946, 3544, 3537, 3536, 3543, 3565, 3558, 3557, 3564
1947, 3538, 3531, 3530, 3537, 3559, 3552, 3551, 3558
1948, 3545, 3538, 3537, 3544, 3566, 3559, 3558, 3565
1949, 3539, 3532, 3531, 3538, 3560, 3553, 3552, 3559
1950, 3546, 3539, 3538, 3545, 3567, 3560, 3559, 3566
1951, 3540, 3533, 3532, 3539, 3561, 3554, 3553, 3560
1952, 3547, 3540, 3539, 3546, 3568, 3561, 3560, 3567
1953, 3541, 3534, 3533, 3540, 3562, 3555, 3554, 3561
1954, 3548, 3541, 3540, 3547, 3569, 3562, 3561, 3568
1955, 3542, 3535, 3534, 3541, 3563, 3556, 3555, 3562
1956, 3549, 3542, 3541, 3548, 3570, 3563, 3562, 3569
1957, 3558, 3551, 3550, 3557, 3579, 3572, 3571, 3578
1958, 3565, 3558, 3557, 3564, 3586, 3579, 3578, 3585
1959, 3559, 3552, 3551, 3558, 3580, 3573, 3572, 3579
1960, 3566, 3559, 3558, 3565, 3587, 3580, 3579, 3586
1961, 3560, 3553, 3552, 3559, 3581, 3574, 3573, 3580
1962, 3567, 3560, 3559, 3566, 3588, 3581, 3580, 3587
1963, 3561, 3554, 3553, 3560, 3582, 3575, 3574, 3581
1964, 3568, 3561, 3560, 3567, 3589, 3582, 3581, 3588
1965, 3562, 3555, 3554, 3561, 3583, 3576, 3575, 3582
1966, 3569, 3562, 3561, 3568, 3590, 3583, 3582, 3589
1967, 3563, 3556, 3555, 3562, 3584, 3577, 3576, 3583
1968, 3570, 3563, 3562, 3569, 3591, 3584, 3583, 3590
1969, 3579, 3572, 3571, 3578, 3600, 3593, 3592, 3599
1970, 3586, 3579, 3578, 3585, 3607, 3600, 3599, 3606
1971, 3580, 3573, 3572, 3579, 3601, 3594, 3593, 3600
1972, 3587, 3580, 3579, 3586, 3608, 3601, 3600, 3607
1973, 3581, 3574, 3573, 3580, 3602, 3595, 3594, 3601
1974, 3588, 3581, 3580, 3587, 3609, 3602, 3601, 3608
1975, 3582, 3575, 3574, 3581, 3603, 3596, 3595, 3602
1976, 3589, 3582, 3581, 3588, 3610, 3603, 3602, 3609
1977, 3583, 3576, 3575, 3582, 3604, 3597, 3596, 3603
1978, 3590, 3583, 3582, 3589, 3611, 3604, 3603, 3610
1979, 3584, 3577, 3576, 3583, 3605, 3598, 3597, 3604
1980, 3591, 3584, 3583, 3590, 3612, 3605, 3604, 3611
1981, 3600, 3593, 3592, 3599, 3621, 3614, 3613, 3620
1982, 3607, 3600, 3599, 3606, 3628, 3621, 3620, 3627
1983, 3601, 3594, 3593, 3600, 3622, 3615, 3614, 3621
1984, 3608, 3601, 3600, 3607, 3629, 3622, 3621, 3628
1985, 3602, 3595, 3594, 3601, 3623, 3616, 3615, 3622
1986, 3609, 3602, 3601, 3608, 3630, 3623, 3622, 3629
1987, 3603, 3596, 3595, 3602, 3624, 3617, 3616, 3623
1988, 3610, 3603, 3602, 3609, 3631, 3624, 3623, 3630
1989, 3604, 3597, 3596, 3603, 3625, 3618, 3617, 3624
1990, 3611, 3604, 3603, 3610, 3632, 3625, 3624, 3631
1991, 3605, 3598, 3597, 3604, 3626, 3619, 3618, 3625
1992, 3612, 3605, 3604, 3611, 3633, 3626, 3625, 3632
1993, 3621, 3614, 3613, 3620, 3642, 3635, 3634, 3641
1994, 3628, 3621, 3620, 3627, 3649, 3642, 3641, 3648
1995, 3622, 3615, 3614, 3621, 3643, 3636, 3635, 3642
1996, 3629, 3622, 3621, 3628, 3650, 3643, 3642, 3649
1997, 3623, 3616, 3615, 3622, 3644, 3637, 3636, 3643
1998, 3630, 3623, 3622, 3629, 3651, 3644, 3643, 3650
1999, 3624, 3617, 3616, 3623, 3645, 3638, 3637, 3644
2000, 3631, 3624, 3623, 3630, 3652, 3645, 3644, 3651
2001, 3625, 3618, 3617, 3624, 3646, 3639, 3638, 3645
2002, 3632, 3625, 3624, 3631, 3653, 3646, 3645, 3652
2003, 3626, 3619, 3618, 3625, 3647, 3640, 3639, 3646
2004, 3633, 3626, 3625, 3632, 3654, 3647, 3646, 3653
2005, 3642, 3635, 3634, 3641, 3663, 3656, 3655, 3662
2006, 3649, 3642, 3641, 3648, 3670, 3663, 3662, 3669
2007, 3643, 3636, 3635, 3642, 3664, 3657, 3656, 3663
2008, 3650, 3643, 3642, 3649, 3671, 3664, 3663, 3670
2009, 3644, 3637, 3636, 3643, 3665, 3658, 3657, 3664
2010, 3651, 3644, 3643, 3650, 3672, 3665, 3664, 3671
2011, 3645, 3638, 3637, 3644, 3666, 3659, 3658, 3665
2012, 3652, 3645, 3644, 3651, 3673, 3666, 3665, 3672
2013, 3646, 3639, 3638, 3645, 3667, 3660, 3659, 3666
2014, 3653, 3646, 3645, 3652, 3674, 3667, 3666, 3673
2015, 3647, 3640, 3639, 3646, 3668, 3661, 3660, 3667
2016, 3654, 3647, 3646, 3653, 3675, 3668, 3667, 3674
2017, 3663, 3656, 3655, 3662, 3684, 3677, 3676, 3683
2018, 3670, 3663, 3662, 3669, 3691, 3684, 3683, 3690
2019, 3664, 3657, 3656, 3663, 3685, 3678, 3677, 3684
2020, 3671, 3664, 3663, 3670, 3692, 3685, 3684, 3691
2021, 3665, 3658, 3657, 3664, 3686, 3679, 3678, 3685
2022, 3672, 3665, 3664, 3671, 3693, 3686, 3685, 3692
2023, 3666, 3659, 3658, 3665, 3687, 3680, 3679, 3686
2024, 3673, 3666, 3665, 3672, 3694, 3687, 3686, 3693
2025, 3667, 3660, 3659, 3666, 3688, 3681, 3680, 3687
2026, 3674, 3667, 3666, 3673, 3695, 3688, 3687, 3694
2027, 3668, 3661, 3660, 3667, 3689, 3682, 3681, 3688
2028, 3675, 3668, 3667, 3674, 3696, 3689, 3688, 3695
2029, 3684, 3677, 3676, 3683, 3705, 3698, 3697, 3704
2030, 3691, 3684, 3683, 3690, 3712, 3705, 3704, 3711
2031, 3685, 3678, 3677, 3684, 3706, 3699, 3698, 3705
2032, 3692, 3685, 3684, 3691, 3713, 3706, 3705, 3712
2033, 3686, 3679, 3678, 3685, 3707, 3700, 3699, 3706
2034, 3693, 3686, 3685, 3692, 3714, 3707, 3706, 3713
2035, 3687, 3680, 3679, 3686, 3708, 3701, 3700, 3707
2036, 3694, 3687, 3686, 3693, 3715, 3708, 3707, 3714
2037, 3688, 3681, 3680, 3687, 3709, 3702, 3701, 3708
2038, 3695, 3688, 3687, 3694, 3716, 3709, 3708, 3715
2039, 3689, 3682, 3681, 3688, 3710, 3703, 3702, 3709
2040, 3696, 3689, 3688, 3695, 3717, 3710, 3709, 3716
2041, 3705, 3698, 3697, 3704, 3726, 3719, 3718, 3725
2042, 3712, 3705, 3704, 3711, 3733, 3726, 3725, 3732
2043, 3706, 3699, 3698, 3705, 3727, 3720, 3719, 3726
2044, 3713, 3706, 3705, 3712, 3734, 3727, 3726, 3733
2045, 3707, 3700, 3699, 3706, 3728, 3721, 3720, 3727
2046, 3714, 3707, 3706, 3713, 3735, 3728, 3727, 3734
2047, 3708, 3701, 3700, 3707, 3729, 3722, 3721, 3728
2048, 3715, 3708, 3707, 3714, 3736, 3729, 3728, 3735
2049, 3709, 3702, 3701, 3708, 3730, 3723, 3722, 3729
2050, 3716, 3709, 3708, 3715, 3737, 3730, 3729, 3736
2051, 3710, 3703, 3702, 3709, 3731, 3724, 3723, 3730
2052, 3717, 3710, 3709, 3716, 3738, 3731, 3730, 3737
2053, 3726, 3719, 3718, 3725, 3747, 3740, 3739, 3746
2054, 3733, 3726, 3725, 3732, 3754, 3747, 3746, 3753
2055, 3727, 3720, 3719, 3726, 3748, 3741, 3740, 3747
2056, 3734, 3727, 3726, 3733, 3755, 3748, 3747, 3754
2057, 3728, 3721, 3720, 3727, 3749, 3742, 3741, 3748
2058, 3735, 3728, 3727, 3734, 3756, 3749, 3748, 3755
2059, 3729, 3722, 3721, 3728, 3750, 3743, 3742, 3749
2060, 3736, 3729, 3728, 3735, 3757, 3750, 3749, 3756
2061, 3730, 3723, 3722, 3729, 3751, 3744, 3743, 3750
2062, 3737, 3730, 3729, 3736, 3758, 3751, 3750, 3757
2063, 3731, 3724, 3723, 3730, 3752, 3745, 3744, 3751
2064, 3738, 3731, 3730, 3737, 3759, 3752, 3751, 3758
2065, 3747, 3740, 3739, 3746, 3768, 3761, 3760, 3767
2066, 3754, 3747, 3746, 3753, 3775, 3768, 3767, 3774
2067, 3748, 3741, 3740, 3747, 3769, 3762, 3761, 3768
2068, 3755, 3748, 3747, 3754, 3776, 3769, 3768, 3775
2069, 3749, 3742, 3741, 3748, 3770, 3763, 3762, 3769
2070, 3756, 3749, 3748, 3755, 3777, 3770, 3769, 3776
2071, 3750, 3743, 3742, 3749, 3771, 3764, 3763, 3770
2072, 3757, 3750, 3749, 3756, 3778, 3771, 3770, 3777
2073, 3751, 3744, 3743, 3750, 3772, 3765, 3764, 3771
2074, 3758, 3751, 3750, 3757, 3779, 3772, 3771, 3778
2075, 3752, 3745, 3744, 3751, 3773, 3766, 3765, 3772
2076, 3759, 3752, 3751, 3758, 3780, 3773, 3772, 3779
2077, 3768, 3761, 3760, 3767, 3789, 3782, 3781, 3788
2078, 3775, 3768, 3767, 3774, 3796, 3789, 3788, 3795
2079, 3769, 3762, 3761, 3768, 3790, 3783, 3782, 3789
2080, 3776, 3769, 3768, 3775, 3797, 3790, 3789, 3796
2081, 3770, 3763, 3762, 3769, 3791, 3784, 3783, 3790
2082, 3777, 3770, 3769, 3776, 3798, 3791, 3790, 3797
2083, 3771, 3764, 3763, 3770, 3792, 3785, 3784, 3791
2084, 3778, 3771, 3770, 3777, 3799, 3792, 3791, 3798
2085, 3772, 3765, 3764, 3771, 3793, 3786, 3785, 3792
2086, 3779, 3772, 3771, 3778, 3800, 3793, 3792, 3799
2087, 3773, 3766, 3765, 3772, 3794, 3787, 3786, 3793
2088, 3780, 3773, 3772, 3779, 3801, 3794, 3793, 3800
2089, 3789, 3782, 3781, 3788, 3810, 3803, 3802, 3809
2090, 3796, 3789, 3788, 3795, 3817, 3810, 3809, 3816
2091, 3790, 3783, 3782, 3789, 3811, 3804, 3803, 3810
2092, 3797, 3790, 3789, 3796, 3818, 3811, 3810, 3817
2093, 3791, 3784, 3783, 3790, 3812, 3805, 3804, 3811
2094, 3798, 3791, 3790, 3797, 3819, 3812, 3811, 3818
2095, 3792, 3785, 3784, 3791, 3813, 3806, 3805, 3812
2096, 3799, 3792, 3791, 3798, 3820, 3813, 3812, 3819
2097, 3793, 3786, 3785, 3792, 3814, 3807, 3806, 3813
2098, 3800, 3793, 3792, 3799, 3821, 3814, 3813, 3820
2099, 3794, 3787, 3786, 3793, 3815, 3808, 3807, 3814
2100, 3801, 3794, 3793, 3800, 3822, 3815, 3814, 3821
2101, 3810, 3803, 3802, 3809, 3831, 3824, 3823, 3830
2102, 3817, 3810, 3809, 3816, 3838, 3831, 3830, 3837
2103, 3811, 3804, 3803, 3810, 3832, 3825, 3824, 3831
2104, 3818, 3811, 3810, 3817, 3839, 3832, 3831, 3838
2105, 3812, 3805, 3804, 3811, 3833, 3826, 3825, 3832
2106, 3819, 3812, 3811, 3818, 3840, 3833, 3832, 3839
2107, 3813, 3806, 3805, 3812, 3834, 3827, 3826, 3833
2108, 3820, 3813, 3812, 3819, 3841, 3834, 3833, 3840
2109, 3814, 3807, 3806, 3813, 3835, 3828, 3827, 3834
2110, 3821, 3814, 3813, 3820, 3842, 3835, 3834, 3841
2111, 3815, 3808, 3807, 3814, 3836, 3829, 3828, 3835
2112, 3822, 3815, 3814, 3821, 3843, 3836, 3835, 3842
2113, 3831, 3824, 3823, 3830, 3852, 3845, 3844, 3851
2114, 3838, 3831, 3830, 3837, 3859, 3852, 3851, 3858
2115, 3832, 3825, 3824, 3831, 3853, 3846, 3845, 3852
2116, 3839, 3832, 3831, 3838, 3860, 3853, 3852, 3859
2117, 3833, 3826, 3825, 3832, 3854, 3847, 3846, 3853
2118, 3840, 3833, 3832, 3839, 3861, 3854, 3853, 3860
2119, 3834, 3827, 3826, 3833, 3855, 3848, 3847, 3854
2120, 3841, 3834, 3833, 3840, 3862, 3855, 3854, 3861
2121, 3835, 3828, 3827, 3834, 3856, 3849, 3848, 3855
2122, 3842, 3835, 3834, 3841, 3863, 3856, 3855, 3862
2123, 3836, 3829, 3828, 3835, 3857, 3850, 3849, 3856
2124, 3843, 3836, 3835, 3842, 3864, 3857, 3856, 3863
2125, 3852, 3845, 3844, 3851, 3873, 3866, 3865, 3872
2126, 3859, 3852, 3851, 3858, 3880, 3873, 3872, 3879
2127, 3853, 3846, 3845, 3852, 3874, 3867, 3866, 3873
2128, 3860, 3853, 3852, 3859, 3881, 3874, 3873, 3880
2129, 3854, 3847, 3846, 3853, 3875, 3868, 3867, 3874
2130, 3861, 3854, 3853, 3860, 3882, 3875, 3874, 3881
2131, 3855, 3848, 3847, 3854, 3876, 3869, 3868, 3875
2132, 3862, 3855, 3854, 3861, 3883, 3876, 3875, 3882
2133, 3856, 3849, 3848, 3855, 3877, 3870, 3869, 3876
2134, 3863, 3856, 3855, 3862, 3884, 3877, 3876, 3883
2135, 3857, 3850, 3849, 3856, 3878, 3871, 3870, 3877
2136, 3864, 3857, 3856, 3863, 3885, 3878, 3877, 3884
2137, 3873, 3866, 3865, 3872, 3894, 3887, 3886, 3893
2138, 3880, 3873, 3872, 3879, 3901, 3894, 3893, 3900
2139, 3874, 3867, 3866, 3873, 3895, 3888, 3887, 3894
2140, 3881, 3874, 3873, 3880, 3902, 3895, 3894, 3901
2141, 3875, 3868, 3867, 3874, 3896, 3889, 3888, 3895
2142, 3882, 3875, 3874, 3881, 3903, 3896, 3895, 3902
2143, 3876, 3869, 3868, 3875, 3897, 3890, 3889, 3896
2144, 3883, 3876, 3875, 3882, 3904, 3897, 3896, 3903
2145, 3877, 3870, 3869, 3876, 3898, 3891, 3890, 3897
2146, 3884, 3877, 3876, 3883, 3905, 3898, 3897, 3904
2147, 3878, 3871, 3870, 3877, 3899, 3892, 3891, 3898
2148, 3885, 3878, 3877, 3884, 3906, 3899, 3898, 3905
2149, 3894, 3887, 3886, 3893, 3915, 3908, 3907, 3914
2150, 3901, 3894, 3893, 3900, 3922, 3915, 3914, 3921
2151, 3895, 3888, 3887, 3894, 3916, 3909, 3908, 3915
2152, 3902, 3895, 3894, 3901, 3923, 3916, 3915, 3922
2153, 3896, 3889, 3888, 3895, 3917, 3910, 3909, 3916
2154, 3903, 3896, 3895, 3902, 3924, 3917, 3916, 3923
2155, 3897, 3890, 3889, 3896, 3918, 3911, 3910, 3917
2156, 3904, 3897, 3896, 3903, 3925, 3918, 3917, 3924
2157, 3898, 3891, 3890, 3897, 3919, 3912, 3911, 3918
2158, 3905, 3898, 3897, 3904, 3926, 3919, 3918, 3925
2159, 3899, 3892, 3891, 3898, 3920, 3913, 3912, 3919
2160, 3906, 3899, 3898, 3905, 3927, 3920, 3919, 3926
2161, 3915, 3908, 3907, 3914, 3936, 3929, 3928, 3935
2162, 3922, 3915, 3914, 3921, 3943, 3936, 3935, 3942
2163, 3916, 3909, 3908, 3915, 3937, 3930, 3929, 3936
2164, 3923, 3916, 3915, 3922, 3944, 3937, 3936, 3943
2165, 3917, 3910, 3909, 3916, 3938, 3931, 3930, 3937
2166, 3924, 3917, 3916, 3923, 3945, 3938, 3937, 3944
2167, 3918, 3911, 3910, 3917, 3939, 3932, 3931, 3938
2168, 3925, 3918, 3917, 3924, 3946, 3939, 3938, 3945
2169, 3919, 3912, 3911, 3918, 3940, 3933, 3932, 3939
2170, 3926, 3919, 3918, 3925, 3947, 3940, 3939, 3946
2171, 3920, 3913, 3912, 3919, 3941, 3934, 3933, 3940
2172, 3927, 3920, 3919, 3926, 3948, 3941, 3940, 3947
2173, 3936, 3929, 3928, 3935, 3957, 3950, 3949, 3956
2174, 3943, 3936, 3935, 3942, 3964, 3957, 3956, 3963
2175, 3937, 3930, 3929, 3936, 3958, 3951, 3950, 3957
2176, 3944, 3937, 3936, 3943, 3965, 3958, 3957, 3964
2177, 3938, 3931, 3930, 3937, 3959, 3952, 3951, 3958
2178, 3945, 3938, 3937, 3944, 3966, 3959, 3958, 3965
2179, 3939, 3932, 3931, 3938, 3960, 3953, 3952, 3959
2180, 3946, 3939, 3938, 3945, 3967, 3960, 3959, 3966
2181, 3940, 3933, 3932, 3939, 3961, 3954, 3953, 3960
2182, 3947, 3940, 3939, 3946, 3968, 3961, 3960, 3967
2183, 3941, 3934, 3933, 3940, 3962, 3955, 3954, 3961
2184, 3948, 3941, 3940, 3947, 3969, 3962, 3961, 3968
2185, 3957, 3950, 3949, 3956, 3978, 3971, 3970, 3977
2186, 3964, 3957, 3956, 3963, 3985, 3978, 3977, 3984
2187, 3958, 3951, 3950, 3957, 3979, 3972, 3971, 3978
2188, 3965, 3958, 3957, 3964, 3986, 3979, 3978, 3985
2189, 3959, 3952, 3951, 3958, 3980, 3973, 3972, 3979
2190, 3966, 3959, 3958, 3965, 3987, 3980, 3979, 3986
2191, 3960, 3953, 3952, 3959, 3981, 3974, 3973, 3980
2192, 3967, 3960, 3959, 3966, 3988, 3981, 3980, 3987
2193, 3961, 3954, 3953, 3960, 3982, 3975, 3974, 3981
2194, 3968, 3961, 3960, 3967, 3989, 3982, 3981, 3988
2195, 3962, 3955, 3954, 3961, 3983, 3976, 3975, 3982
2196, 3969, 3962, 3961, 3968, 3990, 3983, 3982, 3989
2197, 3978, 3971, 3970, 3977, 3999, 3992, 3991, 3998
2198, 3985, 3978, 3977, 3984, 4006, 3999, 3998, 4005
2199, 3979, 3972, 3971, 3978, 4000, 3993, 3992, 3999
2200, 3986, 3979, 3978, 3985, 4007, 4000, 3999, 4006
2201, 3980, 3973, 3972, 3979, 4001, 3994, 3993, 4000
2202, 3987, 3980, 3979, 3986, 4008, 4001, 4000, 4007
2203, 3981, 3974, 3973, 3980, 4002, 3995, 3994, 4001
2204, 3988, 3981, 3980, 3987, 4009, 4002, 4001, 4008
2205, 3982, 3975, 3974, 3981, 4003, 3996, 3995, 4002
2206, 3989, 3982, 3981, 3988, 4010, 4003, 4002, 4009
2207, 3983, 3976, 3975, 3982, 4004, 3997, 3996, 4003
2208, 3990, 3983, 3982, 3989, 4011, 4004, 4003, 4010
2209, 3999, 3992, 3991, 3998, 4020, 4013, 4012, 4019
2210, 4006, 3999, 3998, 4005, 4027, 4020, 4019, 4026
2211, 4000, 3993, 3992, 3999, 4021, 4014, 4013, 4020
2212, 4007, 4000, 3999, 4006, 4028, 4021, 4020, 4027
2213, 4001, 3994, 3993, 4000, 4022, 4015, 4014, 4021
2214, 4008, 4001, 4000, 4007, 4029, 4022, 4021, 4028
2215, 4002, 3995, 3994, 4001, 4023, 4016, 4015, 4022
2216, 4009, 4002, 4001, 4008, 4030, 4023, 4022, 4029
2217, 4003, 3996, 3995, 4002, 4024, 4017, 4016, 4023
2218, 4010, 4003, 4002, 4009, 4031, 4024, 4023, 4030
2219, 4004, 3997, 3996, 4003, 4025, 4018, 4017, 4024
2220, 4011, 4004, 4003, 4010, 4032, 4025, 4024, 4031
2221, 4020, 4013, 4012, 4019, 4041, 4034, 4033, 4040
2222, 4027, 4020, 4019, 4026, 4048, 4041, 4040, 4047
2223, 4021, 4014, 4013, 4020, 4042, 4035, 4034, 4041
2224, 4028, 4021, 4020, 4027, 4049, 4042, 4041, 4048
2225, 4022, 4015, 4014, 4021, 4043, 4036, 4035, 4042
2226, 4029, 4022, 4021, 4028, 4050, 4043, 4042, 4049
2227, 4023, 4016, 4015, 4022, 4044, 4037, 4036, 4043
2228, 4030, 4023, 4022, 4029, 4051, 4044, 4043, 4050
2229, 4024, 4017, 4016, 4023, 4045, 4038, 4037, 4044
2230, 4031, 4024, 4023, 4030, 4052, 4045, 4044, 4051
2231, 4025, 4018, 4017, 4024, 4046, 4039, 4038, 4045
2232, 4032, 4025, 4024, 4031, 4053, 4046, 4045, 4052
2233, 4041, 4034, 4033, 4040, 4062, 4055, 4054, 4061
2234, 4048, 4041, 4040, 4047, 4069, 4062, 4061, 4068
2235, 4042, 4035, 4034, 4041, 4063, 4056, 4055, 4062
2236, 4049, 4042, 4041, 4048, 4070, 4063, 4062, 4069
2237, 4043, 4036, 4035, 4042, 4064, 4057, 4056, 4063
2238, 4050, 4043, 4042, 4049, 4071, 4064, 4063, 4070
2239, 4044, 4037, 4036, 4043, 4065, 4058, 4057, 4064
2240, 4051, 4044, 4043, 4050, 4072, 4065, 4064, 4071
2241, 4045, 4038, 4037, 4044, 4066, 4059, 4058, 4065
2242, 4052, 4045, 4044, 4051, 4073, 4066, 4065, 4072
2243, 4046, 4039, 4038, 4045, 4067, 4060, 4059, 4066
2244, 4053, 4046, 4045, 4052, 4074, 4067, 4066, 4073
2245, 4062, 4055, 4054, 4061, 4083, 4076, 4075, 4082
2246, 4069, 4062, 4061, 4068, 4090, 4083, 4082, 4089
2247, 4063, 4056, 4055, 4062, 4084, 4077, 4076, 4083
2248, 4070, 4063, 4062, 4069, 4091, 4084, 4083, 4090
2249, 4064, 4057, 4056, 4063, 4085, 4078, 4077, 4084
2250, 4071, 4064, 4063, 4070, 4092, 4085, 4084, 4091
2251, 4065, 4058, 4057, 4064, 4086, 4079, 4078, 4085
2252, 4072, 4065, 4064, 4071, 4093, 4086, 4085, 4092
2253, 4066, 4059, 4058, 4065, 4087, 4080, 4079, 4086
2254, 4073, 4066, 4065, 4072, 4094, 4087, 4086, 4093
2255, 4067, 4060, 4059, 4066, 4088, 4081, 4080, 4087
2256, 4074, 4067, 4066, 4073, 4095, 4088, 4087, 4094
2257, 4083, 4076, 4075, 4082, 4104, 4097, 4096, 4103
2258, 4090, 4083, 4082, 4089, 4111, 4104, 4103, 4110
2259, 4084, 4077, 4076, 4083, 4105, 4098, 4097, 4104
2260, 4091, 4084, 4083, 4090, 4112, 4105, 4104, 4111
2261, 4085, 4078, 4077, 4084, 4106, 4099, 4098, 4105
2262, 4092, 4085, 4084, 4091, 4113, 4106, 4105, 4112
2263, 4086, 4079, 4078, 4085, 4107, 4100, 4099, 4106
2264, 4093, 4086, 4085, 4092, 4114, 4107, 4106, 4113
2265, 4087, 4080, 4079, 4086, 4108, 4101, 4100, 4107
2266, 4094, 4087, 4086, 4093, 4115, 4108, 4107, 4114
2267, 4088, 4081, 4080, 4087, 4109, 4102, 4101, 4108
2268, 4095, 4088, 4087, 4094, 4116, 4109, 4108, 4115
2269, 4125, 4118, 4117, 4124, 4146, 4139, 4138, 4145
2270, 4132, 4125, 4124, 4131, 4153, 4146, 4145, 4152
2271, 4126, 4119, 4118, 4125, 4147, 4140, 4139, 4146
2272, 4133, 4126, 4125, 4132, 4154, 4147, 4146, 4153
2273, 4127, 4120, 4119, 4126, 4148, 4141, 4140, 4147
2274, 4134, 4127, 4126, 4133, 4155, 4148, 4147, 4154
2275, 4128, 4121, 4120, 4127, 4149, 4142, 4141, 4148
2276, 4135, 4128, 4127, 4134, 4156, 4149, 4148, 4155
2277, 4129, 4122, 4121, 4128, 4150, 4143, 4142, 4149
2278, 4136, 4129, 4128, 4135, 4157, 4150, 4149, 4156
2279, 4130, 4123, 4122, 4129, 4151, 4144, 4143, 4150
2280, 4137, 4130, 4129, 4136, 4158, 4151, 4150, 4157
2281, 4146, 4139, 4138, 4145, 4167, 4160, 4159, 4166
2282, 4153, 4146, 4145, 4152, 4174, 4167, 4166, 4173
2283, 4147, 4140, 4139, 4146, 4168, 4161, 4160, 4167
2284, 4154, 4147, 4146, 4153, 4175, 4168, 4167, 4174
2285, 4148, 4141, 4140, 4147, 4169, 4162, 4161, 4168
2286, 4155, 4148, 4147, 4154, 4176, 4169, 4168, 4175
2287, 4149, 4142, 4141, 4148, 4170, 4163, 4162, 4169
2288, 4156, 4149, 4148, 4155, 4177, 4170, 4169, 4176
2289, 4150, 4143, 4142, 4149, 4171, 4164, 4163, 4170
2290, 4157, 4150, 4149, 4156, 4178, 4171, 4170, 4177
2291, 4151, 4144, 4143, 4150, 4172, 4165, 4164, 4171
2292, 4158, 4151, 4150, 4157, 4179, 4172, 4171, 4178
2293, 4167, 4160, 4159, 4166, 4188, 4181, 4180, 4187
2294, 4174, 4167, 4166, 4173, 4195, 4188, 4187, 4194
2295, 4168, 4161, 4160, 4167, 4189, 4182, 4181, 4188
2296, 4175, 4168, 4167, 4174, 4196, 4189, 4188, 4195
2297, 4169, 4162, 4161, 4168, 4190, 4183, 4182, 4189
2298, 4176, 4169, 4168, 4175, 4197, 4190, 4189, 4196
2299, 4170, 4163, 4162, 4169, 4191, 4184, 4183, 4190
2300, 4177, 4170, 4169, 4176, 4198, 4191, 4190, 4197
2301, 4171, 4164, 4163, 4170, 4192, 4185, 4184, 4191
2302, 4178, 4171, 4170, 4177, 4199, 4192, 4191, 4198
2303, 4172, 4165, 4164, 4171, 4193, 4186, 4185, 4192
2304, 4179, 4172, 4171, 4178, 4200, 4193, 4192, 4199
2305, 4188, 4181, 4180, 4187, 4209, 4202, 4201, 4208
2306, 4195, 4188, 4187, 4194, 4216, 4209, 4208, 4215
2307, 4189, 4182, 4181, 4188, 4210, 4203, 4202, 4209
2308, 4196, 4189, 4188, 4195, 4217, 4210, 4209, 4216
2309, 4190, 4183, 4182, 4189, 4211, 4204, 4203, 4210
2310, 4197, 4190, 4189, 4196, 4218, 4211, 4210, 4217
2311, 4191, 4184, 4183, 4190, 4212, 4205, 4204, 4211
2312, 4198, 4191, 4190, 4197, 4219, 4212, 4211, 4218
2313, 4192, 4185, 4184, 4191, 4213, 4206, 4205, 4212
2314, 4199, 4192, 4191, 4198, 4220, 4213, 4212, 4219
2315, 4193, 4186, 4185, 4192, 4214, 4207, 4206, 4213
2316, 4200, 4193, 4192, 4199, 4221, 4214, 4213, 4220
2317, 4209, 4202, 4201, 4208, 4230, 4223, 4222, 4229
2318, 4216, 4209, 4208, 4215, 4237, 4230, 4229, 4236
2319, 4210, 4203, 4202, 4209, 4231, 4224, 4223, 4230
2320, 4217, 4210, 4209, 4216, 4238, 4231, 4230, 4237
2321, 4211, 4204, 4203, 4210, 4232, 4225, 4224, 4231
2322, 4218, 4211, 4210, 4217, 4239, 4232, 4231, 4238
2323, 4212, 4205, 4204, 4211, 4233, 4226, 4225, 4232
2324, 4219, 4212, 4211, 4218, 4240, 4233, 4232, 4239
2325, 4213, 4206, 4205, 4212, 4234, 4227, 4226, 4233
2326, 4220, 4213, 4212, 4219, 4241, 4234, 4233, 4240
2327, 4214, 4207, 4206, 4213, 4235, 4228, 4227, 4234
2328, 4221, 4214, 4213, 4220, 4242, 4235, 4234, 4241
2329, 4230, 4223, 4222, 4229, 4251, 4244, 4243, 4250
2330, 4237, 4230, 4229, 4236, 4258, 4251, 4250, 4257
2331, 4231, 4224, 4223, 4230, 4252, 4245, 4244, 4251
2332, 4238, 4231, 4230, 4237, 4259, 4252, 4251, 4258
2333, 4232, 4225, 4224, 4231, 4253, 4246, 4245, 4252
2334, 4239, 4232, 4231, 4238, 4260, 4253, 4252, 4259
2335, 4233, 4226, 4225, 4232, 4254, 4247, 4246, 4253
2336, 4240, 4233, 4232, 4239, 4261, 4254, 4253, 4260
2337, 4234, 4227, 4226, 4233, 4255, 4248, 4247, 4254
2338, 4241, 4234, 4233, 4240, 4262, 4255, 4254, 4261
2339, 4235, 4228, 4227, 4234, 4256, 4249, 4248, 4255
2340, 4242, 4235, 4234, 4241, 4263, 4256, 4255, 4262
2341, 4251, 4244, 4243, 4250, 4272, 4265, 4264, 4271
2342, 4258, 4251, 4250, 4257, 4279, 4272, 4271, 4278
2343, 4252, 4245, 4244, 4251, 4273, 4266, 4265, 4272
2344, 4259, 4252, 4251, 4258, 4280, 4273, 4272, 4279
2345, 4253, 4246, 4245, 4252, 4274, 4267, 4266, 4273
2346, 4260, 4253, 4252, 4259, 4281, 4274, 4273, 4280
2347, 4254, 4247, 4246, 4253, 4275, 4268, 4267, 4274
2348, 4261, 4254, 4253, 4260, 4282, 4275, 4274, 4281
2349, 4255, 4248, 4247, 4254, 4276, 4269, 4268, 4275
2350, 4262, 4255, 4254, 4261, 4283, 4276, 4275, 4282
2351, 4256, 4249, 4248, 4255, 4277, 4270, 4269, 4276
2352, 4263, 4256, 4255, 4262, 4284, 4277, 4276, 4283
2353, 4272, 4265, 4264, 4271, 4293, 4286, 4285, 4292
2354, 4279, 4272, 4271, 4278, 4300, 4293, 4292, 4299
2355, 4273, 4266, 4265, 4272, 4294, 4287, 4286, 4293
2356, 4280, 4273, 4272, 4279, 4301, 4294, 4293, 4300
2357, 4274, 4267, 4266, 4273, 4295, 4288, 4287, 4294
2358, 4281, 4274, 4273, 4280, 4302, 4295, 4294, 4301
2359, 4275, 4268, 4267, 4274, 4296, 4289, 4288, 4295
2360, 4282, 4275, 4274, 4281, 4303, 4296, 4295, 4302
2361, 4276, 4269, 4268, 4275, 4297, 4290, 4289, 4296
2362, 4283, 4276, 4275, 4282, 4304, 4297, 4296, 4303
2363, 4277, 4270, 4269, 4276, 4298, 4291, 4290, 4297
2364, 4284, 4277, 4276, 4283, 4305, 4298, 4297, 4304
2365, 4293, 4286, 4285, 4292, 4314, 4307, 4306, 4313
2366, 4300, 4293, 4292, 4299, 4321, 4314, 4313, 4320
2367, 4294, 4287, 4286, 4293, 4315, 4308, 4307, 4314
2368, 4301, 4294, 4293, 4300, 4322, 4315, 4314, 4321
2369, 4295, 4288, 4287, 4294, 4316, 4309, 4308, 4315
2370, 4302, 4295, 4294, 4301, 4323, 4316, 4315, 4322
2371, 4296, 4289, 4288, 4295, 4317, 4310, 4309, 4316
2372, 4303, 4296, 4295, 4302, 4324, 4317, 4316, 4323
2373, 4297, 4290, 4289, 4296, 4318, 4311, 4310, 4317
2374, 4304, 4297, 4296, 4303, 4325, 4318, 4317, 4324
2375, 4298, 4291, 4290, 4297, 4319, 4312, 4311, 4318
2376, 4305, 4298, 4297, 4304, 4326, 4319, 4318, 4325
2377, 4314, 4307, 4306, 4313, 4335, 4328, 4327, 4334
2378, 4321, 4314, 4313, 4320, 4342, 4335, 4334, 4341
2379, 4315, 4308, 4307, 4314, 4336, 4329, 4328, 4335
2380, 4322, 4315, 4314, 4321, 4343, 4336, 4335, 4342
2381, 4316, 4309, 4308, 4315, 4337, 4330, 4329, 4336
2382, 4323, 4316, 4315, 4322, 4344, 4337, 4336, 4343
2383, 4317, 4310, 4309, 4316, 4338, 4331, 4330, 4337
2384, 4324, 4317, 4316, 4323, 4345, 4338, 4337, 4344
2385, 4318, 4311, 4310, 4317, 4339, 4332, 4331, 4338
2386, 4325, 4318, 4317, 4324, 4346, 4339, 4338, 4345
2387, 4319, 4312, 4311, 4318, 4340, 4333, 4332, 4339
2388, 4326, 4319, 4318, 4325, 4347, 4340, 4339, 4346
2389, 4335, 4328, 4327, 4334, 4356, 4349, 4348, 4355
2390, 4342, 4335, 4334, 4341, 4363, 4356, 4355, 4362
2391, 4336, 4329, 4328, 4335, 4357, 4350, 4349, 4356
2392, 4343, 4336, 4335, 4342, 4364, 4357, 4356, 4363
2393, 4337, 4330, 4329, 4336, 4358, 4351, 4350, 4357
2394, 4344, 4337, 4336, 4343, 4365, 4358, 4357, 4364
2395, 4338, 4331, 4330, 4337, 4359, 4352, 4351, 4358
2396, 4345, 4338, 4337, 4344, 4366, 4359, 4358, 4365
2397, 4339, 4332, 4331, 4338, 4360, 4353, 4352, 4359
2398, 4346, 4339, 4338, 4345, 4367, 4360, 4359, 4366
2399, 4340, 4333, 4332, 4339, 4361, 4354, 4353, 4360
2400, 4347, 4340, 4339, 4346, 4368, 4361, 4360, 4367
2401, 4356, 4349, 4348, 4355, 4377, 4370, 4369, 4376
2402, 4363, 4356, 4355, 4362, 4384, 4377, 4376, 4383
2403, 4357, 4350, 4349, 4356, 4378, 4371, 4370, 4377
2404, 4364, 4357, 4356, 4363, 4385, 4378, 4377, 4384
2405, 4358, 4351, 4350, 4357, 4379, 4372, 4371, 4378
2406, 4365, 4358, 4357, 4364, 4386, 4379, 4378, 4385
2407, 4359, 4352, 4351, 4358, 4380, 4373, 4372, 4379
2408, 4366, 4359, 4358, 4365, 4387, 4380, 4379, 4386
2409, 4360, 4353, 4352, 4359, 4381, 4374, 4373, 4380
2410, 4367, 4360, 4359, 4366, 4388, 4381, 4380, 4387
2411, 4361, 4354, 4353, 4360, 4382, 4375, 4374, 4381
2412, 4368, 4361, 4360, 4367, 4389, 4382, 4381, 4388
2413, 4377, 4370, 4369, 4376, 4398, 4391, 4390, 4397
2414, 4384, 4377, 4376, 4383, 4405, 4398, 4397, 4404
2415, 4378, 4371, 4370, 4377, 4399, 4392, 4391, 4398
2416, 4385, 4378, 4377, 4384, 4406, 4399, 4398, 4405
2417, 4379, 4372, 4371, 4378, 4400, 4393, 4392, 4399
2418, 4386, 4379, 4378, 4385, 4407, 4400, 4399, 4406
2419, 4380, 4373, 4372, 4379, 4401, 4394, 4393, 4400
2420, 4387, 4380, 4379, 4386, 4408, 4401, 4400, 4407
2421, 4381, 4374, 4373, 4380, 4402, 4395, 4394, 4401
2422, 4388, 4381, 4380, 4387, 4409, 4402, 4401, 4408
2423, 4382, 4375, 4374, 4381, 4403, 4396, 4395, 4402
2424, 4389, 4382, 4381, 4388, 4410, 4403, 4402, 4409
2425, 4398, 4391, 4390, 4397, 4419, 4412, 4411, 4418
2426, 4405, 4398, 4397, 4404, 4426, 4419, 4418, 4425
2427, 4399, 4392, 4391, 4398, 4420, 4413, 4412, 4419
2428, 4406, 4399, 4398, 4405, 4427, 4420, 4419, 4426
2429, 4400, 4393, 4392, 4399, 4421, 4414, 4413, 4420
2430, 4407, 4400, 4399, 4406, 4428, 4421, 4420, 4427
2431, 4401, 4394, 4393, 4400, 4422, 4415, 4414, 4421
2432, 4408, 4401, 4400, 4407, 4429, 4422, 4421, 4428
2433, 4402, 4395, 4394, 4401, 4423, 4416, 4415, 4422
2434, 4409, 4402, 4401, 4408, 4430, 4423, 4422, 4429
2435, 4403, 4396, 4395, 4402, 4424, 4417, 4416, 4423
2436, 4410, 4403, 4402, 4409, 4431, 4424, 4423, 4430
2437, 4419, 4412, 4411, 4418, 4440, 4433, 4432, 4439
2438, 4426, 4419, 4418, 4425, 4447, 4440, 4439, 4446
2439, 4420, 4413, 4412, 4419, 4441, 4434, 4433, 4440
2440, 4427, 4420, 4419, 4426, 4448, 4441, 4440, 4447
2441, 4421, 4414, 4413, 4420, 4442, 4435, 4434, 4441
2442, 4428, 4421, 4420, 4427, 4449, 4442, 4441, 4448
2443, 4422, 4415, 4414, 4421, 4443, 4436, 4435, 4442
2444, 4429, 4422, 4421, 4428, 4450, 4443, 4442, 4449
2445, 4423, 4416, 4415, 4422, 4444, 4437, 4436, 4443
2446, 4430, 4423, 4422, 4429, 4451, 4444, 4443, 4450
2447, 4424, 4417, 4416, 4423, 4445, 4438, 4437, 4444
2448, 4431, 4424, 4423, 4430, 4452, 4445, 4444, 4451
2449, 4440, 4433, 4432, 4439, 4461, 4454, 4453, 4460
2450, 4447, 4440, 4439, 4446, 4468, 4461, 4460, 4467
2451, 4441, 4434, 4433, 4440, 4462, 4455, 4454, 4461
2452, 4448, 4441, 4440, 4447, 4469, 4462, 4461, 4468
2453, 4442, 4435, 4434, 4441, 4463, 4456, 4455, 4462
2454, 4449, 4442, 4441, 4448, 4470, 4463, 4462, 4469
2455, 4443, 4436, 4435, 4442, 4464, 4457, 4456, 4463
2456, 4450, 4443, 4442, 4449, 4471, 4464, 4463, 4470
2457, 4444, 4437, 4436, 4443, 4465, 4458, 4457, 4464
2458, 4451, 4444, 4443, 4450, 4472, 4465, 4464, 4471
2459, 4445, 4438, 4437, 4444, 4466, 4459, 4458, 4465
2460, 4452, 4445, 4444, 4451, 4473, 4466, 4465, 4472
2461, 4461, 4454, 4453, 4460, 4482, 4475, 4474, 4481
2462, 4468, 4461, 4460, 4467, 4489, 4482, 4481, 4488
2463, 4462, 4455, 4454, 4461, 4483, 4476, 4475, 4482
2464, 4469, 4462, 4461, 4468, 4490, 4483, 4482, 4489
2465, 4463, 4456, 4455, 4462, 4484, 4477, 4476, 4483
2466, 4470, 4463, 4462, 4469, 4491, 4484, 4483, 4490
2467, 4464, 4457, 4456, 4463, 4485, 4478, 4477, 4484
2468, 4471, 4464, 4463, 4470, 4492, 4485, 4484, 4491
2469, 4465, 4458, 4457, 4464, 4486, 4479, 4478, 4485
2470, 4472, 4465, 4464, 4471, 4493, 4486, 4485, 4492
2471, 4466, 4459, 4458, 4465, 4487, 4480, 4479, 4486
2472, 4473, 4466, 4465, 4472, 4494, 4487, 4486, 4493
2473, 4482, 4475, 4474, 4481, 4503, 4496, 4495, 4502
2474, 4489, 4482, 4481, 4488, 4510, 4503, 4502, 4509
2475, 4483, 4476, 4475, 4482, 4504, 4497, 4496, 4503
2476, 4490, 4483, 4482, 4489, 4511, 4504, 4503, 4510
2477, 4484, 4477, 4476, 4483, 4505, 4498, 4497, 4504
2478, 4491, 4484, 4483, 4490, 4512, 4505, 4504, 4511
2479, 4485, 4478, 4477, 4484, 4506, 4499, 4498, 4505
2480, 4492, 4485, 4484, 4491, 4513, 4506, 4505, 4512
2481, 4486, 4479, 4478, 4485, 4507, 4500, 4499, 4506
2482, 4493, 4486, 4485, 4492, 4514, 4507, 4506, 4513
2483, 4487, 4480, 4479, 4486, 4508, 4501, 4500, 4507
2484, 4494, 4487, 4486, 4493, 4515, 4508, 4507, 4514
2485, 4503, 4496, 4495, 4502, 4524, 4517, 4516, 4523
2486, 4510, 4503, 4502, 4509, 4531, 4524, 4523, 4530
2487, 4504, 4497, 4496, 4503, 4525, 4518, 4517, 4524
2488, 4511, 4504, 4503, 4510, 4532, 4525, 4524, 4531
2489, 4505, 4498, 4497, 4504, 4526, 4519, 4518, 4525
2490, 4512, 4505, 4504, 4511, 4533, 4526, 4525, 4532
2491, 4506, 4499, 4498, 4505, 4527, 4520, 4519, 4526
2492, 4513, 4506, 4505, 4512, 4534, 4527, 4526, 4533
2493, 4507, 4500, 4499, 4506, 4528, 4521, 4520, 4527
2494, 4514, 4507, 4506, 4513, 4535, 4528, 4527, 4534
2495, 4508, 4501, 4500, 4507, 4529, 4522, 4521, 4528
2496, 4515, 4508, 4507, 4514, 4536, 4529, 4528, 4535
2497, 4524, 4517, 4516, 4523, 4545, 4538, 4537, 4544
2498, 4531, 4524, 4523, 4530, 4552, 4545, 4544, 4551
2499, 4525, 4518, 4517, 4524, 4546, 4539, 4538, 4545
2500, 4532, 4525, 4524, 4531, 4553, 4546, 4545, 4552
2501, 4526, 4519, 4518, 4525, 4547, 4540, 4539, 4546
2502, 4533, 4526, 4525, 4532, 4554, 4547, 4546, 4553
2503, 4527, 4520, 4519, 4526, 4548, 4541, 4540, 4547
2504, 4534, 4527, 4526, 4533, 4555, 4548, 4547, 4554
2505, 4528, 4521, 4520, 4527, 4549, 4542, 4541, 4548
2506, 4535, 4528, 4527, 4534, 4556, 4549, 4548, 4555
2507, 4529, 4522, 4521, 4528, 4550, 4543, 4542, 4549
2508, 4536, 4529, 4528, 4535, 4557, 4550, 4549, 4556
2509, 4545, 4538, 4537, 4544, 4566, 4559, 4558, 4565
2510, 4552, 4545, 4544, 4551, 4573, 4566, 4565, 4572
2511, 4546, 4539, 4538, 4545, 4567, 4560, 4559, 4566
2512, 4553, 4546, 4545, 4552, 4574, 4567, 4566, 4573
2513, 4547, 4540, 4539, 4546, 4568, 4561, 4560, 4567
2514, 4554, 4547, 4546, 4553, 4575, 4568, 4567, 4574
2515, 4548, 4541, 4540, 4547, 4569, 4562, 4561, 4568
2516, 4555, 4548, 4547, 4554, 4576, 4569, 4568, 4575
2517, 4549, 4542, 4541, 4548, 4570, 4563, 4562, 4569
2518, 4556, 4549, 4548, 4555, 4577, 4570, 4569, 4576
2519, 4550, 4543, 4542, 4549, 4571, 4564, 4563, 4570
2520, 4557, 4550, 4549, 4556, 4578, 4571, 4570, 4577
2521, 4566, 4559, 4558, 4565, 4587, 4580, 4579, 4586
2522, 4573, 4566, 4565, 4572, 4594, 4587, 4586, 4593
2523, 4567, 4560, 4559, 4566, 4588, 4581, 4580, 4587
2524, 4574, 4567, 4566, 4573, 4595, 4588, 4587, 4594
2525, 4568, 4561, 4560, 4567, 4589, 4582, 4581, 4588
2526, 4575, 4568, 4567, 4574, 4596, 4589, 4588, 4595
2527, 4569, 4562, 4561, 4568, 4590, 4583, 4582, 4589
2528, 4576, 4569, 4568, 4575, 4597, 4590, 4589, 4596
2529, 4570, 4563, 4562, 4569, 4591, 4584, 4583, 4590
2530, 4577, 4570, 4569, 4576, 4598, 4591, 4590, 4597
2531, 4571, 4564, 4563, 4570, 4592, 4585, 4584, 4591
2532, 4578, 4571, 4570, 4577, 4599, 4592, 4591, 4598
2533, 4587, 4580, 4579, 4586, 4608, 4601, 4600, 4607
2534, 4594, 4587, 4586, 4593, 4615, 4608, 4607, 4614
2535, 4588, 4581, 4580, 4587, 4609, 4602, 4601, 4608
2536, 4595, 4588, 4587, 4594, 4616, 4609, 4608, 4615
2537, 4589, 4582, 4581, 4588, 4610, 4603, 4602, 4609
2538, 4596, 4589, 4588, 4595, 4617, 4610, 4609, 4616
2539, 4590, 4583, 4582, 4589, 4611, 4604, 4603, 4610
2540, 4597, 4590, 4589, 4596, 4618, 4611, 4610, 4617
2541, 4591, 4584, 4583, 4590, 4612, 4605, 4604, 4611
2542, 4598, 4591, 4590, 4597, 4619, 4612, 4611, 4618
2543, 4592, 4585, 4584, 4591, 4613, 4606, 4605, 4612
2544, 4599, 4592, 4591, 4598, 4620, 4613, 4612, 4619
2545, 4608, 4601, 4600, 4607, 4629, 4622, 4621, 4628
2546, 4615, 4608, 4607, 4614, 4636, 4629, 4628, 4635
2547, 4609, 4602, 4601, 4608, 4630, 4623, 4622, 4629
2548, 4616, 4609, 4608, 4615, 4637, 4630, 4629, 4636
2549, 4610, 4603, 4602, 4609, 4631, 4624, 4623, 4630
2550, 4617, 4610, 4609, 4616, 4638, 4631, 4630, 4637
2551, 4611, 4604, 4603, 4610, 4632, 4625, 4624, 4631
2552, 4618, 4611, 4610, 4617, 4639, 4632, 4631, 4638
2553, 4612, 4605, 4604, 4611, 4633, 4626, 4625, 4632
2554, 4619, 4612, 4611, 4618, 4640, 4633, 4632, 4639
2555, 4613, 4606, 4605, 4612, 4634, 4627, 4626, 4633
2556, 4620, 4613, 4612, 4619, 4641, 4634, 4633, 4640
2557, 4629, 4622, 4621, 4628, 4650, 4643, 4642, 4649
2558, 4636, 4629, 4628, 4635, 4657, 4650, 4649, 4656
2559, 4630, 4623, 4622, 4629, 4651, 4644, 4643, 4650
2560, 4637, 4630, 4629, 4636, 4658, 4651, 4650, 4657
2561, 4631, 4624, 4623, 4630, 4652, 4645, 4644, 4651
2562, 4638, 4631, 4630, 4637, 4659, 4652, 4651, 4658
2563, 4632, 4625, 4624, 4631, 4653, 4646, 4645, 4652
2564, 4639, 4632, 4631, 4638, 4660, 4653, 4652, 4659
2565, 4633, 4626, 4625, 4632, 4654, 4647, 4646, 4653
2566, 4640, 4633, 4632, 4639, 4661, 4654, 4653, 4660
2567, 4634, 4627, 4626, 4633, 4655, 4648, 4647, 4654
2568, 4641, 4634, 4633, 4640, 4662, 4655, 4654, 4661
2569, 4650, 4643, 4642, 4649, 4671, 4664, 4663, 4670
2570, 4657, 4650, 4649, 4656, 4678, 4671, 4670, 4677
2571, 4651, 4644, 4643, 4650, 4672, 4665, 4664, 4671
2572, 4658, 4651, 4650, 4657, 4679, 4672, 4671, 4678
2573, 4652, 4645, 4644, 4651, 4673, 4666, 4665, 4672
2574, 4659, 4652, 4651, 4658, 4680, 4673, 4672, 4679
2575, 4653, 4646, 4645, 4652, 4674, 4667, 4666, 4673
2576, 4660, 4653, 4652, 4659, 4681, 4674, 4673, 4680
2577, 4654, 4647, 4646, 4653, 4675, 4668, 4667, 4674
2578, 4661, 4654, 4653, 4660, 4682, 4675, 4674, 4681
2579, 4655, 4648, 4647, 4654, 4676, 4669, 4668, 4675
2580, 4662, 4655, 4654, 4661, 4683, 4676, 4675, 4682
2581, 4671, 4664, 4663, 4670, 4692, 4685, 4684, 4691
2582, 4678, 4671, 4670, 4677, 4699, 4692, 4691, 4698
2583, 4672, 4665, 4664, 4671, 4693, 4686, 4685, 4692
2584, 4679, 4672, 4671, 4678, 4700, 4693, 4692, 4699
2585, 4673, 4666, 4665, 4672, 4694, 4687, 4686, 4693
2586, 4680, 4673, 4672, 4679, 4701, 4694, 4693, 4700
2587, 4674, 4667, 4666, 4673, 4695, 4688, 4687, 4694
2588, 4681, 4674, 4673, 4680, 4702, 4695, 4694, 4701
2589, 4675, 4668, 4667, 4674, 4696, 4689, 4688, 4695
2590, 4682, 4675, 4674, 4681, 4703, 4696, 4695, 4702
2591, 4676, 4669, 4668, 4675, 4697, 4690, 4689, 4696
2592, 4683, 4676, 4675, 4682, 4704, 4697, 4696, 4703
*ELSET, ELSET=WARP_XMIN
1, 2, 13, 14, 25, 26, 37, 38, 49, 50, 61, 62, 73, 74, 85, 86
97, 98, 109, 110, 121, 122, 133, 134, 145, 146, 157, 158, 169, 170, 181, 182
193, 194, 205, 206, 217, 218, 229, 230, 241, 242, 253, 254, 265, 266, 277, 278
289, 290, 301, 302, 313, 314
*ELSET, ELSET=WARP_XMAX
983, 984, 995, 996, 1007, 1008, 1019, 1020, 1031, 1032, 1043, 1044, 1055, 1056, 1067, 1068
1079, 1080, 1091, 1092, 1103, 1104, 1115, 1116, 1127, 1128, 1139, 1140, 1151, 1152, 1163, 1164
1175, 1176, 1187, 1188, 1199, 1200, 1211, 1212, 1223, 1224, 1235, 1236, 1247, 1248, 1259, 1260
1271, 1272, 1283, 1284, 1295, 1296
*ELSET, ELSET=WARP_YMIN
6, 8, 318, 320
*ELSET, ELSET=WARP_YMAX
653, 655, 965, 967
*ELSET, ELSET=WARP_ZMIN
325, 326, 327, 328, 329, 330, 331, 332, 333, 334, 335, 336, 973, 974, 975, 976
977, 978, 979, 980, 981, 982, 983, 984
*ELSET, ELSET=WARP_ZMAX
637, 638, 639, 640, 641, 642, 643, 644, 645, 646, 647, 648, 1285, 1286, 1287, 1288
1289, 1290, 1291, 1292, 1293, 1294, 1295, 1296
*ELSET, ELSET=WEFT_XMIN
1297, 1298, 1299, 1300, 1301, 1302, 1303, 1304, 1305, 1306, 1307, 1308, 1945, 1946, 1947, 1948
1949, 1950, 1951, 1952, 1953, 1954, 1955, 1956
*ELSET, ELSET=WEFT_XMAX
1609, 1610, 1611, 1612, 1613, 1614, 1615, 1616, 1617, 1618, 1619, 1620, 2257, 2258, 2259, 2260
2261, 2262, 2263, 2264, 2265, 2266, 2267, 2268
*ELSET, ELSET=WEFT_YMIN
1626, 1628, 1938, 1940
*ELSET, ELSET=WEFT_YMAX
2273, 2275, 2585, 2587
*ELSET, ELSET=WEFT_ZMIN
1307, 1308, 1319, 1320, 1331, 1332, 1343, 1344, 1355, 1356, 1367, 1368, 1379, 1380, 1391, 1392
1403, 1404, 1415, 1416, 1427, 1428, 1439, 1440, 1451, 1452, 1463, 1464, 1475, 1476, 1487, 1488
1499, 1500, 1511, 1512, 1523, 1524, 1535, 1536, 1547, 1548, 1559, 1560, 1571, 1572, 1583, 1584
1595, 1596, 1607, 1608, 1619, 1620
*ELSET, ELSET=WEFT_ZMAX
2269, 2270, 2281, 2282, 2293, 2294, 2305, 2306, 2317, 2318, 2329, 2330, 2341, 2342, 2353, 2354
2365, 2366, 2377, 2378, 2389, 2390, 2401, 2402, 2413, 2414, 2425, 2426, 2437, 2438, 2449, 2450
2461, 2462, 2473, 2474, 2485, 2486, 2497, 2498, 2509, 2510, 2521, 2522, 2533, 2534, 2545, 2546
2557, 2558, 2569, 2570, 2581, 2582
*ELSET, ELSET=WARP_SEGMENT_0
1, 2, 3, 4, 5, 6, 7, 8, 9, 10, 11, 12, 13, 14, 15, 16
17, 18, 19, 20, 21, 22, 23, 24, 25, 26, 27, 28, 29, 30, 31, 32
33, 34, 35, 36, 37, 38, 39, 40, 41, 42, 43, 44, 45, 46, 47, 48
49, 50, 51, 52, 53, 54, 55, 56, 57, 58, 59, 60, 61, 62, 63, 64
65, 66, 67, 68, 69, 70, 71, 72, 73, 74, 75, 76, 77, 78, 79, 80
81, 82, 83, 84, 85, 86, 87, 88, 89, 90, 91, 92, 93, 94, 95, 96
97, 98, 99, 100, 101, 102, 103, 104, 105, 106, 107, 108, 109, 110, 111, 112
113, 114, 115, 116, 117, 118, 119, 120, 121, 122, 123, 124, 125, 126, 127, 128
129, 130, 131, 132, 133, 134, 135, 136, 137, 138, 139, 140, 141, 142, 143, 144
145, 146, 147, 148, 149, 150, 151, 152, 153, 154, 155, 156, 157, 158, 159, 160
161, 162, 163, 164, 165, 166, 167, 168, 169, 170, 171, 172, 173, 174, 175, 176
177, 178, 179, 180, 181, 182, 183, 184, 185, 186, 187, 188, 189, 190, 191, 192
193, 194, 195, 196, 197, 198, 199, 200, 201, 202, 203, 204, 205, 206, 207, 208
209, 210, 211, 212, 213, 214, 215, 216, 217, 218, 219, 220, 221, 222, 223, 224
225, 226, 227, 228, 229, 230, 231, 232, 233, 234, 235, 236, 237, 238, 239, 240
241, 242, 243, 244, 245, 246, 247, 248, 249, 250, 251, 252, 253, 254, 255, 256
257, 258, 259, 260, 261, 262, 263, 264, 265, 266, 267, 268, 269, 270, 271, 272
273, 274, 275, 276, 277, 278, 279, 280, 281, 282, 283, 284, 285, 286, 287, 288
289, 290, 291, 292, 293, 294, 295, 296, 297, 298, 299, 300, 301, 302, 303, 304
305, 306, 307, 308, 309, 310, 311, 312, 313, 314, 315, 316, 317, 318, 319, 320
321, 322, 323, 324
*ELSET, ELSET=WARP_SEGMENT_1
325, 326, 327, 328, 329, 330, 331, 332, 333, 334, 335, 336, 337, 338, 339, 340
341, 342, 343, 344, 345, 346, 347, 348, 349, 350, 351, 352, 353, 354, 355, 356
357, 358, 359, 360, 361, 362, 363, 364, 365, 366, 367, 368, 369, 370, 371, 372
373, 374, 375, 376, 377, 378, 379, 380, 381, 382, 383, 384, 385, 386, 387, 388
389, 390, 391, 392, 393, 394, 395, 396, 397, 398, 399, 400, 401, 402, 403, 404
405, 406, 407, 408, 409, 410, 411, 412, 413, 414, 415, 416, 417, 418, 419, 420
421, 422, 423, 424, 425, 426, 427, 428, 429, 430, 431, 432, 433, 434, 435, 436
437, 438, 439, 440, 441, 442, 443, 444, 445, 446, 447, 448, 449, 450, 451, 452
453, 454, 455, 456, 457, 458, 459, 460, 461, 462, 463, 464, 465, 466, 467, 468
469, 470, 471, 472, 473, 474, 475, 476, 477, 478, 479, 480, 481, 482, 483, 484
485, 486, 487, 488, 489, 490, 491, 492, 493, 494, 495, 496, 497, 498, 499, 500
501, 502, 503, 504, 505, 506, 507, 508, 509, 510, 511, 512, 513, 514, 515, 516
517, 518, 519, 520, 521, 522, 523, 524, 525, 526, 527, 528, 529, 530, 531, 532
533, 534, 535, 536, 537, 538, 539, 540, 541, 542, 543, 544, 545, 546, 547, 548
549, 550, 551, 552, 553, 554, 555, 556, 557, 558, 559, 560, 561, 562, 563, 564
565, 566, 567, 568, 569, 570, 571, 572, 573, 574, 575, 576, 577, 578, 579, 580
581, 582, 583, 584, 585, 586, 587, 588, 589, 590, 591, 592, 593, 594, 595, 596
597, 598, 599, 600, 601, 602, 603, 604, 605, 606, 607, 608, 609, 610, 611, 612
613, 614, 615, 616, 617, 618, 619, 620, 621, 622, 623, 624, 625, 626, 627, 628
629, 630, 631, 632, 633, 634, 635, 636, 637, 638, 639, 640, 641, 642, 643, 644
645, 646, 647, 648
*ELSET, ELSET=WARP_SEGMENT_2
649, 650, 651, 652, 653, 654, 655, 656, 657, 658, 659, 660, 661, 662, 663, 664
665, 666, 667, 668, 669, 670, 671, 672, 673, 674, 675, 676, 677, 678, 679, 680
681, 682, 683, 684, 685, 686, 687, 688, 689, 690, 691, 692, 693, 694, 695, 696
697, 698, 699, 700, 701, 702, 703, 704, 705, 706, 707, 708, 709, 710, 711, 712
713, 714, 715, 716, 717, 718, 719, 720, 721, 722, 723, 724, 725, 726, 727, 728
729, 730, 731, 732, 733, 734, 735, 736, 737, 738, 739, 740, 741, 742, 743, 744
745, 746, 747, 748, 749, 750, 751, 752, 753, 754, 755, 756, 757, 758, 759, 760
761, 762, 763, 764, 765, 766, 767, 768, 769, 770, 771, 772, 773, 774, 775, 776
777, 778, 779, 780, 781, 782, 783, 784, 785, 786, 787, 788, 789, 790, 791, 792
793, 794, 795, 796, 797, 798, 799, 800, 801, 802, 803, 804, 805, 806, 807, 808
809, 810, 811, 812, 813, 814, 815, 816, 817, 818, 819, 820, 821, 822, 823, 824
825, 826, 827, 828, 829, 830, 831, 832, 833, 834, 835, 836, 837, 838, 839, 840
841, 842, 843, 844, 845, 846, 847, 848, 849, 850, 851, 852, 853, 854, 855, 856
857, 858, 859, 860, 861, 862, 863, 864, 865, 866, 867, 868, 869, 870, 871, 872
873, 874, 875, 876, 877, 878, 879, 880, 881, 882, 883, 884, 885, 886, 887, 888
889, 890, 891, 892, 893, 894, 895, 896, 897, 898, 899, 900, 901, 902, 903, 904
905, 906, 907, 908, 909, 910, 911, 912, 913, 914, 915, 916, 917, 918, 919, 920
921, 922, 923, 924, 925, 926, 927, 928, 929, 930, 931, 932, 933, 934, 935, 936
937, 938, 939, 940, 941, 942, 943, 944, 945, 946, 947, 948, 949, 950, 951, 952
953, 954, 955, 956, 957, 958, 959, 960, 961, 962, 963, 964, 965, 966, 967, 968
969, 970, 971, 972
*ELSET, ELSET=WARP_SEGMENT_3
973, 974, 975, 976, 977, 978, 979, 980, 981, 982, 983, 984, 985, 986, 987, 988
989, 990, 991, 992, 993, 994, 995, 996, 997, 998, 999, 1000, 1001, 1002, 1003, 1004
1005, 1006, 1007, 1008, 1009, 1010, 1011, 1012, 1013, 1014, 1015, 1016, 1017, 1018, 1019, 1020
1021, 1022, 1023, 1024, 1025, 1026, 1027, 1028, 1029, 1030, 1031, 1032, 1033, 1034, 1035, 1036
1037, 1038, 1039, 1040, 1041, 1042, 1043, 1044, 1045, 1046, 1047, 1048, 1049, 1050, 1051, 1052
1053, 1054, 1055, 1056, 1057, 1058, 1059, 1060, 1061, 1062, 1063, 1064, 1065, 1066, 1067, 1068
1069, 1070, 1071, 1072, 1073, 1074, 1075, 1076, 1077, 1078, 1079, 1080, 1081, 1082, 1083, 1084
1085, 1086, 1087, 1088, 1089, 1090, 1091, 1092, 1093, 1094, 1095, 1096, 1097, 1098, 1099, 1100
1101, 1102, 1103, 1104, 1105, 1106, 1107, 1108, 1109, 1110, 1111, 1112, 1113, 1114, 1115, 1116
1117, 1118, 1119, 1120, 1121, 1122, 1123, 1124, 1125, 1126, 1127, 1128, 1129, 1130, 1131, 1132
1133, 1134, 1135, 1136, 1137, 1138, 1139, 1140, 1141, 1142, 1143, 1144, 1145, 1146, 1147, 1148
1149, 1150, 1151, 1152, 1153, 1154, 1155, 1156, 1157, 1158, 1159, 1160, 1161, 1162, 1163, 1164
1165, 1166, 1167, 1168, 1169, 1170, 1171, 1172, 1173, 1174, 1175, 1176, 1177, 1178, 1179, 1180
1181, 1182, 1183, 1184, 1185, 1186, 1187, 1188, 1189, 1190, 1191, 1192, 1193, 1194, 1195, 1196
1197, 1198, 1199, 1200, 1201, 1202, 1203, 1204, 1205, 1206, 1207, 1208, 1209, 1210, 1211, 1212
1213, 1214, 1215, 1216, 1217, 1218, 1219, 1220, 1221, 1222, 1223, 1224, 1225, 1226, 1227, 1228
1229, 1230, 1231, 1232, 1233, 1234, 1235, 1236, 1237, 1238, 1239, 1240, 1241, 1242, 1243, 1244
1245, 1246, 1247, 1248, 1249, 1250, 1251, 1252, 1253, 1254, 1255, 1256, 1257, 1258, 1259, 1260
1261, 1262, 1263, 1264, 1265, 1266, 1267, 1268, 1269, 1270, 1271, 1272, 1273, 1274, 1275, 1276
1277, 1278, 1279, 1280, 1281, 1282, 1283, 1284, 1285, 1286, 1287, 1288, 1289, 1290, 1291, 1292
1293, 1294, 1295, 1296
*ELSET, ELSET=WEFT_SEGMENT_4
1297, 1298, 1299, 1300, 1301, 1302, 1303, 1304, 1305, 1306, 1307, 1308, 1309, 1310, 1311, 1312
1313, 1314, 1315, 1316, 1317, 1318, 1319, 1320, 1321, 1322, 1323, 1324, 1325, 1326, 1327, 1328
1329, 1330, 1331, 1332, 1333, 1334, 1335, 1336, 1337, 1338, 1339, 1340, 1341, 1342, 1343, 1344
1345, 1346, 1347, 1348, 1349, 1350, 1351, 1352, 1353, 1354, 1355, 1356, 1357, 1358, 1359, 1360
1361, 1362, 1363, 1364, 1365, 1366, 1367, 1368, 1369, 1370, 1371, 1372, 1373, 1374, 1375, 1376
1377, 1378, 1379, 1380, 1381, 1382, 1383, 1384, 1385, 1386, 1387, 1388, 1389, 1390, 1391, 1392
1393, 1394, 1395, 1396, 1397, 1398, 1399, 1400, 1401, 1402, 1403, 1404, 1405, 1406, 1407, 1408
1409, 1410, 1411, 1412, 1413, 1414, 1415, 1416, 1417, 1418, 1419, 1420, 1421, 1422, 1423, 1424
1425, 1426, 1427, 1428, 1429, 1430, 1431, 1432, 1433, 1434, 1435, 1436, 1437, 1438, 1439, 1440
1441, 1442, 1443, 1444, 1445, 1446, 1447, 1448, 1449, 1450, 1451, 1452, 1453, 1454, 1455, 1456
1457, 1458, 1459, 1460, 1461, 1462, 1463, 1464, 1465, 1466, 1467, 1468, 1469, 1470, 1471, 1472
1473, 1474, 1475, 1476, 1477, 1478, 1479, 1480, 1481, 1482, 1483, 1484, 1485, 1486, 1487, 1488
1489, 1490, 1491, 1492, 1493, 1494, 1495, 1496, 1497, 1498, 1499, 1500, 1501, 1502, 1503, 1504
1505, 1506, 1507, 1508, 1509, 1510, 1511, 1512, 1513, 1514, 1515, 1516, 1517, 1518, 1519, 1520
1521, 1522, 1523, 1524, 1525, 1526, 1527, 1528, 1529, 1530, 1531, 1532, 1533, 1534, 1535, 1536
1537, 1538, 1539, 1540, 1541, 1542, 1543, 1544, 1545, 1546, 1547, 1548, 1549, 1550, 1551, 1552
1553, 1554, 1555, 1556, 1557, 1558, 1559, 1560, 1561, 1562, 1563, 1564, 1565, 1566, 1567, 1568
1569, 1570, 1571, 1572, 1573, 1574, 1575, 1576, 1577, 1578, 1579, 1580, 1581, 1582, 1583, 1584
1585, 1586, 1587, 1588, 1589, 1590, 1591, 1592, 1593, 1594, 1595, 1596, 1597, 1598, 1599, 1600
1601, 1602, 1603, 1604, 1605, 1606, 1607, 1608, 1609, 1610, 1611, 1612, 1613, 1614, 1615, 1616
1617, 1618, 1619, 1620
*ELSET, ELSET=WEFT_SEGMENT_5
1621, 1622, 1623, 1624, 1625, 1626, 1627, 1628, 1629, 1630, 1631, 1632, 1633, 1634, 1635, 1636
1637, 1638, 1639, 1640, 1641, 1642, 1643, 1644, 1645, 1646, 1647, 1648, 1649, 1650, 1651, 1652
1653, 1654, 1655, 1656, 1657, 1658, 1659, 1660, 1661, 1662, 1663, 1664, 1665, 1666, 1667, 1668
1669, 1670, 1671, 1672, 1673, 1674, 1675, 1676, 1677, 1678, 1679, 1680, 1681, 1682, 1683, 1684
1685, 1686, 1687, 1688, 1689, 1690, 1691, 1692, 1693, 1694, 1695, 1696, 1697, 1698, 1699, 1700
1701, 1702, 1703, 1704, 1705, 1706, 1707, 1708, 1709, 1710, 1711, 1712, 1713, 1714, 1715, 1716
1717, 1718, 1719, 1720, 1721, 1722, 1723, 1724, 1725, 1726, 1727, 1728, 1729, 1730, 1731, 1732
1733, 1734, 1735, 1736, 1737, 1738, 1739, 1740, 1741, 1742, 1743, 1744, 1745, 1746, 1747, 1748
1749, 1750, 1751, 1752, 1753, 1754, 1755, 1756, 1757, 1758, 1759, 1760, 1761, 1762, 1763, 1764
1765, 1766, 1767, 1768, 1769, 1770, 1771, 1772, 1773, 1774, 1775, 1776, 1777, 1778, 1779, 1780
1781, 1782, 1783, 1784, 1785, 1786, 1787, 1788, 1789, 1790, 1791, 1792, 1793, 1794, 1795, 1796
1797, 1798, 1799, 1800, 1801, 1802, 1803, 1804, 1805, 1806, 1807, 1808, 1809, 1810, 1811, 1812
1813, 1814, 1815, 1816, 1817, 1818, 1819, 1820, 1821, 1822, 1823, 1824, 1825, 1826, 1827, 1828
1829, 1830, 1831, 1832, 1833, 1834, 1835, 1836, 1837, 1838, 1839, 1840, 1841, 1842, 1843, 1844
1845, 1846, 1847, 1848, 1849, 1850, 1851, 1852, 1853, 1854, 1855, 1856, 1857, 1858, 1859, 1860
1861, 1862, 1863, 1864, 1865, 1866, 1867, 1868, 1869, 1870, 1871, 1872, 1873, 1874, 1875, 1876
1877, 1878, 1879, 1880, 1881, 1882, 1883, 1884, 1885, 1886, 1887, 1888, 1889, 1890, 1891, 1892
1893, 1894, 1895, 1896, 1897, 1898, 1899, 1900, 1901, 1902, 1903, 1904, 1905, 1906, 1907, 1908
1909, 1910, 1911, 1912, 1913, 1914, 1915, 1916, 1917, 1918, 1919, 1920, 1921, 1922, 1923, 1924
1925, 1926, 1927, 1928, 1929, 1930, 1931, 1932, 1933, 1934, 1935, 1936, 1937, 1938, 1939, 1940
1941, 1942, 1943, 1944
*ELSET, ELSET=WEFT_SEGMENT_6
1945, 1946, 1947, 1948, 1949, 1950, 1951, 1952, 1953, 1954, 1955, 1956, 1957, 1958, 1959, 1960
1961, 1962, 1963, 1964, 1965, 1966, 1967, 1968, 1969, 1970, 1971, 1972, 1973, 1974, 1975, 1976
1977, 1978, 1979, 1980, 1981, 1982, 1983, 1984, 1985, 1986, 1987, 1988, 1989, 1990, 1991, 1992
1993, 1994, 1995, 1996, 1997, 1998, 1999, 2000, 2001, 2002, 2003, 2004, 2005, 2006, 2007, 2008
2009, 2010, 2011, 2012, 2013, 2014, 2015, 2016, 2017, 2018, 2019, 2020, 2021, 2022, 2023, 2024
2025, 2026, 2027, 2028, 2029, 2030, 2031, 2032, 2033, 2034, 2035, 2036, 2037, 2038, 2039, 2040
2041, 2042, 2043, 2044, 2045, 2046, 2047, 2048, 2049, 2050, 2051, 2052, 2053, 2054, 2055, 2056
2057, 2058, 2059, 2060, 2061, 2062, 2063, 2064, 2065, 2066, 2067, 2068, 2069, 2070, 2071, 2072
2073, 2074, 2075, 2076, 2077, 2078, 2079, 2080, 2081, 2082, 2083, 2084, 2085, 2086, 2087, 2088
2089, 2090, 2091, 2092, 2093, 2094, 2095, 2096, 2097, 2098, 2099, 2100, 2101, 2102, 2103, 2104
2105, 2106, 2107, 2108, 2109, 2110, 2111, 2112, 2113, 2114, 2115, 2116, 2117, 2118, 2119, 2120
2121, 2122, 2123, 2124, 2125, 2126, 2127, 2128, 2129, 2130, 2131, 2132, 2133, 2134, 2135, 2136
2137, 2138, 2139, 2140, 2141, 2142, 2143, 2144, 2145, 2146, 2147, 2148, 2149, 2150, 2151, 2152
2153, 2154, 2155, 2156, 2157, 2158, 2159, 2160, 2161, 2162, 2163, 2164, 2165, 2166, 2167, 2168
2169, 2170, 2171, 2172, 2173, 2174, 2175, 2176, 2177, 2178, 2179, 2180, 2181, 2182, 2183, 2184
2185, 2186, 2187, 2188, 2189, 2190, 2191, 2192, 2193, 2194, 2195, 2196, 2197, 2198, 2199, 2200
2201, 2202, 2203, 2204, 2205, 2206, 2207, 2208, 2209, 2210, 2211, 2212, 2213, 2214, 2215, 2216
2217, 2218, 2219, 2220, 2221, 2222, 2223, 2224, 2225, 2226, 2227, 2228, 2229, 2230, 2231, 2232
2233, 2234, 2235, 2236, 2237, 2238, 2239, 2240, 2241, 2242, 2243, 2244, 2245, 2246, 2247, 2248
2249, 2250, 2251, 2252, 2253, 2254, 2255, 2256, 2257, 2258, 2259, 2260, 2261, 2262, 2263, 2264
2265, 2266, 2267, 2268
*ELSET, ELSET=WEFT_SEGMENT_7
2269, 2270, 2271, 2272, 2273, 2274, 2275, 2276, 2277, 2278, 2279, 2280, 2281, 2282, 2283, 2284
2285, 2286, 2287, 2288, 2289, 2290, 2291, 2292, 2293, 2294, 2295, 2296, 2297, 2298, 2299, 2300
2301, 2302, 2303, 2304, 2305, 2306, 2307, 2308, 2309, 2310, 2311, 2312, 2313, 2314, 2315, 2316
2317, 2318, 2319, 2320, 2321, 2322, 2323, 2324, 2325, 2326, 2327, 2328, 2329, 2330, 2331, 2332
2333, 2334, 2335, 2336, 2337, 2338, 2339, 2340, 2341, 2342, 2343, 2344, 2345, 2346, 2347, 2348
2349, 2350, 2351, 2352, 2353, 2354, 2355, 2356, 2357, 2358, 2359, 2360, 2361, 2362, 2363, 2364
2365, 2366, 2367, 2368, 2369, 2370, 2371, 2372, 2373, 2374, 2375, 2376, 2377, 2378, 2379, 2380
2381, 2382, 2383, 2384, 2385, 2386, 2387, 2388, 2389, 2390, 2391, 2392, 2393, 2394, 2395, 2396
2397, 2398, 2399, 2400, 2401, 2402, 2403, 2404, 2405, 2406, 2407, 2408, 2409, 2410, 2411, 2412
2413, 2414, 2415, 2416, 2417, 2418, 2419, 2420, 2421, 2422, 2423, 2424, 2425, 2426, 2427, 2428
2429, 2430, 2431, 2432, 2433, 2434, 2435, 2436, 2437, 2438, 2439, 2440, 2441, 2442, 2443, 2444
2445, 2446, 2447, 2448, 2449, 2450, 2451, 2452, 2453, 2454, 2455, 2456, 2457, 2458, 2459, 2460
2461, 2462, 2463, 2464, 2465, 2466, 2467, 2468, 2469, 2470, 2471, 2472, 2473, 2474, 2475, 2476
2477, 2478, 2479, 2480, 2481, 2482, 2483, 2484, 2485, 2486, 2487, 2488, 2489, 2490, 2491, 2492
2493, 2494, 2495, 2496, 2497, 2498, 2499, 2500, 2501, 2502, 2503, 2504, 2505, 2506, 2507, 2508
2509, 2510, 2511, 2512, 2513, 2514, 2515, 2516, 2517, 2518, 2519, 2520, 2521, 2522, 2523, 2524
2525, 2526, 2527, 2528, 2529, 2530, 2531, 2532, 2533, 2534, 2535, 2536, 2537, 2538, 2539, 2540
2541, 2542, 2543, 2544, 2545, 2546, 2547, 2548, 2549, 2550, 2551, 2552, 2553, 2554, 2555, 2556
2557, 2558, 2559, 2560, 2561, 2562, 2563, 2564, 2565, 2566, 2567, 2568, 2569, 2570, 2571, 2572
2573, 2574, 2575, 2576, 2577, 2578, 2579, 2580, 2581, 2582, 2583, 2584, 2585, 2586, 2587, 2588
2589, 2590, 2591, 2592
